# 
# This is the geometry file that corresponds to the current relaxation step.
# If you do not want this file to be written, set the "write_restart_geometry" flag to .false.
#  aims_uuid : 4539E001-6EAC-4DB2-A450-008F5045F82D                                
# 
  set_vacuum_level         0.651789
lattice_vector     16.31232095      0.00000000      0.00000000
lattice_vector     -8.15665875     14.12581815      0.00000000
lattice_vector      0.00000000      0.00000000    103.32585319
atom      -0.00079498      0.94034503     51.61828904 Mo
atom       1.63126707      1.88254315     53.27869266 Se
atom       1.63166632      1.88277255     49.95828285 Se
atom      -1.63130326      3.76516016     51.62039723 Mo
atom      -0.00165874      4.70646435     53.28454006 Se
atom      -0.00398248      4.71000212     49.95741343 Se
atom      -3.26120319      6.59001283     51.62315832 Mo
atom      -1.63144996      7.53238110     53.28737757 Se
atom      -1.63141964      7.53427759     49.96129096 Se
atom      -4.89425981      9.41814149     51.62314679 Mo
atom      -3.26319381     10.35823431     53.28736308 Se
atom      -3.26152328     10.35731101     49.96129302 Se
atom      -6.52603588     12.24191852     51.62038060 Mo
atom      -4.89594632     13.18241542     53.28454102 Se
atom      -4.89403474     13.17863306     49.95739547 Se
atom       3.26631031      0.93596893     51.61786862 Mo
atom       4.88772756      1.88172078     53.28548211 Se
atom       4.88957296      1.86791703     49.94284417 Se
atom       1.62889391      3.77172699     51.61787238 Mo
atom       3.25868375      4.70292441     53.28550622 Se
atom       3.24764436      4.71141576     49.94282401 Se
atom      -0.00163579      6.59004334     51.62319610 Mo
atom       1.63663848      7.52964686     53.28183379 Se
atom       1.63082632      7.53296389     49.96292243 Se
atom      -1.63151281      9.41632216     51.62506771 Mo
atom       0.00012503     10.35824930     53.28737727 Se
atom      -0.00153442     10.35729329     49.96127702 Se
atom      -3.26453506     12.24078960     51.62319570 Mo
atom      -1.63160823     13.18960484     53.28185284 Se
atom      -1.63163115     13.18290704     49.96291633 Se
atom       6.52494466      0.94971499     51.61806978 Mo
atom       8.16219438      1.88172722     53.28541884 Se
atom       8.16027481      1.86788585     49.94279964 Se
atom       4.85328975      3.74274480     51.60587855 Mo
atom       6.52489205      4.70768249     53.18547747 Se
atom       6.52522183      4.70812090     55.42034163 Se
atom       6.52481599      4.70760358     49.98053382 Se
atom       3.27003234      6.58668393     51.61806607 Mo
atom       4.89585622      7.53845078     53.28540025 Se
atom       4.88287876      7.54370252     49.94275718 Se
atom       1.63120781      9.41815248     51.62316741 Mo
atom       3.26248447     10.35996774     53.28447638 Se
atom       3.25818243     10.36023043     49.95732797 Se
atom       0.00133577     12.24075736     51.62317559 Mo
atom       1.63269010     13.18245215     53.28449864 Se
atom       1.63076224     13.17861765     49.95734432 Se
atom       9.78360849      0.93595191     51.61778792 Mo
atom      11.41858495      1.88256007     53.27860599 Se
atom      11.41820784      1.88276514     49.95819822 Se
atom       8.19640938      3.74273828     51.60579840 Mo
atom       9.79099992      4.70290107     53.28541710 Se
atom       9.80202231      4.71140555     49.94274236 Se
atom       6.52475148      6.63762947     51.60576269 Mo
atom       8.15364095      7.53843842     53.28536719 Se
atom       8.16655137      7.54371891     49.94273299 Se
atom       4.88731553      9.41543511     51.61775954 Mo
atom       6.52464409     10.35795173     53.27858858 Se
atom       6.52462547     10.35753111     49.95816049 Se
atom       3.26279915     12.24189652     51.62035132 Mo
atom       4.89445361     13.18382327     53.28197019 Se
atom       4.89301929     13.18301027     49.95597482 Se
atom      13.05069309      0.94034930     51.61824866 Mo
atom      14.68107795      1.88121256     53.28201753 Se
atom      14.68110962      1.88286858     49.95601366 Se
atom      11.42084527      3.77175675     51.61777537 Mo
atom      13.05130234      4.70646087     53.28450298 Se
atom      13.05369888      4.71000551     49.95735706 Se
atom       9.77948826      6.58667870     51.61799391 Mo
atom      11.41283422      7.52963375     53.28178483 Se
atom      11.41866920      7.53298974     49.96287175 Se
atom       8.16201702      9.41543805     51.61774296 Mo
atom       9.78679244     10.35996220     53.28448411 Se
atom       9.79108231     10.36026365     49.95732576 Se
atom       6.52455331     12.24241575     51.61823076 Mo
atom       8.15460975     13.18381674     53.28200392 Se
atom       8.15605762     13.18302290     49.95598853 Se
# 
# What follows is the current estimated Hessian matrix constructed by the BFGS algorithm.
# This is NOT the true Hessian matrix of the system.
# If you do not want this information here, switch it off using the "hessian_to_restart_geometry" keyword.
# 
trust_radius             0.0010854987
hessian_file
