# 
# This is the geometry file that corresponds to the current relaxation step.
# If you do not want this file to be written, set the "write_restart_geometry" flag to .false.
#  aims_uuid : C99A8E5D-2C16-45F5-A893-773C4C7572F1                                
# 
  set_vacuum_level        53.672829
lattice_vector     15.76960250      0.00000000      0.00000000
lattice_vector     -7.88732950     13.65525595      0.00000000
lattice_vector      0.00000000      0.00000000     99.30554027
atom       1.60785994      0.96871842      3.07846947 Mo
atom       0.02993418      1.87981466      4.64543352 S
atom       0.03180223      1.87583388      1.50668319 S
atom       0.03279745      3.69722114      3.07274230 Mo
atom      -1.54624345      4.61064132      4.64132067 S
atom      -1.54578139      4.61090379      1.50521296 S
atom      -1.54834947      6.43466066      3.07274171 Mo
atom      -3.12417409      7.34048042      4.64542544 S
atom      -3.12667963      7.34408294      1.50667009 S
atom      -3.12479860      9.16231634      3.07845659 Mo
atom      -4.70105335     10.07227669      4.64904057 S
atom      -4.70106547     10.07412288      1.51032772 S
atom      -4.70145174     11.89356000      3.08046557 Mo
atom      -6.27898473     12.80413890      4.64904504 S
atom      -6.27739836     12.80321333      1.51033991 S
atom       4.76291199      0.96872385      3.07846689 Mo
atom       3.18526681      1.88433958      4.64509114 S
atom       3.18526554      1.87722312      1.50940532 S
atom       3.18487425      3.70342938      3.07230633 Mo
atom       1.60425701      4.61341576      4.64095329 S
atom       1.60559996      4.59624619      1.49336491 S
atom       1.58103738      6.41624685      3.05873451 Mo
atom       0.03090069      7.33735790      4.64095512 S
atom       0.01669657      7.34709730      1.49335395 S
atom       0.03256364      9.16098515      3.07230370 Mo
atom      -1.54309992     10.07048679      4.64509063 S
atom      -1.54925176     10.07404500      1.50938785 S
atom      -1.54776427     11.89435798      3.07846285 Mo
atom      -3.12412898     12.80414131      4.64904086 S
atom      -3.12572793     12.80322195      1.51032978 S
atom       7.91670103      0.96959477      3.07566940 Mo
atom       6.34058200      1.87979660      4.64543370 S
atom       6.33871492      1.87583214      1.50669167 S
atom       6.33693885      3.69720244      3.07276063 Mo
atom       4.76524245      4.61339707      4.64096702 S
atom       4.76392473      4.59623772      1.49337392 S
atom       4.78771846      6.41622121      3.05874836 Mo
atom       3.18424767      7.34171405      4.58972579 S
atom       3.18424757      7.34157588      6.52944848 S
atom       3.18426274      7.34175344      1.51873999 S
atom       3.18384122      9.19290807      3.05876701 Mo
atom       1.61087763     10.07450626      4.64097340 S
atom       1.59536681     10.08194952      1.49338046 S
atom       1.60270172     11.89353695      3.07276869 Mo
atom       0.03013787     12.80501979      4.64544304 S
atom       0.02578108     12.80538029      1.50668304 S
atom      11.07018449      0.96958166      3.07341710 Mo
atom       9.49416541      1.88026740      4.64326083 S
atom       9.49266827      1.87939894      1.50500602 S
atom       9.49292829      3.70027788      3.07341373 Mo
atom       7.91576514      4.61064104      4.64133212 S
atom       7.91530044      4.61091258      1.50523861 S
atom       7.91708147      6.43466097      3.07276425 Mo
atom       6.33760316      7.33736330      4.64097794 S
atom       6.35181185      7.34710428      1.49337510 S
atom       6.33514974      9.16097655      3.07232507 Mo
atom       4.75659453     10.07450547      4.64098176 S
atom       4.77212638     10.08194393      1.49339349 S
atom       4.76398672     11.89353712      3.07277310 Mo
atom       3.18324312     12.80401034      4.64135037 S
atom       3.18324994     12.80346503      1.50523437 S
atom      14.22365157      0.96960119      3.07567179 Mo
atom      12.64596824      1.88027609      4.64326640 S
atom      12.64746708      1.87939843      1.50499629 S
atom      12.64642712      3.70027601      3.07340448 Mo
atom      11.06956924      4.60949963      4.64325312 S
atom      11.06956165      4.61122745      1.50499817 S
atom      11.06917125      6.43095188      3.07566077 Mo
atom       9.49267770      7.34048942      4.64543197 S
atom       9.49516487      7.34409460      1.50669149 S
atom       9.49252845      9.16232367      3.07847014 Mo
atom       7.91057956     10.07047394      4.64510040 S
atom       7.91672521     10.07403242      1.50941796 S
atom       7.91449966     11.89435057      3.07847906 Mo
atom       6.33632948     12.80501359      4.64544889 S
atom       6.34069375     12.80536653      1.50669662 S
# 
# What follows is the current estimated Hessian matrix constructed by the BFGS algorithm.
# This is NOT the true Hessian matrix of the system.
# If you do not want this information here, switch it off using the "hessian_to_restart_geometry" keyword.
# 
trust_radius             0.0004880725
hessian_file
