# 
# This is the geometry file that corresponds to the current relaxation step.
# If you do not want this file to be written, set the "write_restart_geometry" flag to .false.
#  aims_uuid : 1053A6A5-4EAF-406A-A911-3886BA54422A                                
# 
  set_vacuum_level        53.672829
lattice_vector     15.76960250      0.00000000      0.00000000
lattice_vector     -7.88732950     13.65525595      0.00000000
lattice_vector      0.00000000      0.00000000     99.30554027
atom       1.60785794      0.96872393      3.07845005 Mo
atom       0.02995302      1.87977296      4.64541618 S
atom       0.03182738      1.87581767      1.50666750 S
atom       0.03276146      3.69721109      3.07275129 Mo
atom      -1.54625090      4.61065493      4.64133781 S
atom      -1.54575623      4.61092993      1.50517471 S
atom      -1.54836395      6.43464281      3.07273826 Mo
atom      -3.12416144      7.34047596      4.64542196 S
atom      -3.12664714      7.34406929      1.50662759 S
atom      -3.12480449      9.16231939      3.07843079 Mo
atom      -4.70102297     10.07230103      4.64901423 S
atom      -4.70104061     10.07413247      1.51029315 S
atom      -4.70149749     11.89358668      3.08042365 Mo
atom      -6.27897647     12.80413471      4.64906838 S
atom      -6.27740329     12.80321695      1.51025698 S
atom       4.76286301      0.96873830      3.07845004 Mo
atom       3.18525789      1.88429328      4.64511899 S
atom       3.18526212      1.87722776      1.50937532 S
atom       3.18487564      3.70343195      3.07234167 Mo
atom       1.60425781      4.61338695      4.64099169 S
atom       1.60562612      4.59626239      1.49340059 S
atom       1.58100732      6.41623760      3.05879688 Mo
atom       0.03087258      7.33736195      4.64098444 S
atom       0.01673379      7.34709767      1.49336721 S
atom       0.03253058      9.16099892      3.07231924 Mo
atom      -1.54311617     10.07049810      4.64507960 S
atom      -1.54923066     10.07403454      1.50937085 S
atom      -1.54777532     11.89436464      3.07843696 Mo
atom      -3.12413574     12.80410353      4.64901700 S
atom      -3.12572477     12.80319643      1.51029268 S
atom       7.91671003      0.96961480      3.07564163 Mo
atom       6.34061413      1.87977593      4.64543496 S
atom       6.33873843      1.87584804      1.50666504 S
atom       6.33695218      3.69722914      3.07277475 Mo
atom       4.76526711      4.61337581      4.64101219 S
atom       4.76393605      4.59627602      1.49340143 S
atom       4.78769059      6.41624112      3.05881346 Mo
atom       3.18424249      7.34171468      4.58985613 S
atom       3.18420086      7.34160435      6.52958446 S
atom       3.18427101      7.34174734      1.51877951 S
atom       3.18383745      9.19293643      3.05883009 Mo
atom       1.61085828     10.07452901      4.64099701 S
atom       1.59538377     10.08191671      1.49339893 S
atom       1.60271274     11.89356297      3.07276461 Mo
atom       0.03014769     12.80501025      4.64543731 S
atom       0.02580839     12.80535836      1.50664210 S
atom      11.07017125      0.96957848      3.07338360 Mo
atom       9.49416823      1.88026623      4.64326127 S
atom       9.49266350      1.87940086      1.50494636 S
atom       9.49290370      3.70028911      3.07338553 Mo
atom       7.91577852      4.61063494      4.64136607 S
atom       7.91527518      4.61092866      1.50520370 S
atom       7.91706276      6.43463691      3.07277820 Mo
atom       6.33763554      7.33735228      4.64102756 S
atom       6.35178566      7.34707460      1.49339771 S
atom       6.33514636      9.16096752      3.07235980 Mo
atom       4.75662205     10.07452188      4.64101871 S
atom       4.77212654     10.08191493      1.49342968 S
atom       4.76397587     11.89357652      3.07278119 Mo
atom       3.18322829     12.80400993      4.64137003 S
atom       3.18324038     12.80343054      1.50519245 S
atom      14.22361134      0.96962382      3.07564411 Mo
atom      12.64596674      1.88027712      4.64325951 S
atom      12.64746988      1.87939728      1.50493794 S
atom      12.64642117      3.70028904      3.07337124 Mo
atom      11.06957004      4.60949799      4.64325231 S
atom      11.06955621      4.61123091      1.50494015 S
atom      11.06916047      6.43093453      3.07563321 Mo
atom       9.49271103      7.34047078      4.64543291 S
atom       9.49516250      7.34406499      1.50666520 S
atom       9.49249066      9.16235827      3.07845321 Mo
atom       7.91061319     10.07050524      4.64512588 S
atom       7.91671796     10.07403345      1.50938979 S
atom       7.91449419     11.89435122      3.07845945 Mo
atom       6.33637490     12.80501675      4.64543211 S
atom       6.34072072     12.80535202      1.50667970 S
# 
# What follows is the current estimated Hessian matrix constructed by the BFGS algorithm.
# This is NOT the true Hessian matrix of the system.
# If you do not want this information here, switch it off using the "hessian_to_restart_geometry" keyword.
# 
trust_radius             0.0006231209
hessian_file
