# 
# This is the geometry file that corresponds to the current relaxation step.
# If you do not want this file to be written, set the "write_restart_geometry" flag to .false.
#  aims_uuid : 7DEC8EB8-5D37-45FF-A9A8-456AB40ABE40                                
# 
  set_vacuum_level       103.288256
lattice_vector     16.31232095      0.00000000      0.00000000
lattice_vector     -8.15665875     14.12581815      0.00000000
lattice_vector      0.00000000      0.00000000    103.32585319
atom       0.00356253      0.94276549     51.66405236 Mo
atom       1.65175717      1.89431104     53.31313902 Se
atom       1.62534474      1.87901272     49.98813868 Se
atom      -1.63142316      3.76686206     51.65779266 Mo
atom       0.02503629      4.70969547     53.30667348 Se
atom       0.00130769      4.69820268     49.98695960 Se
atom      -3.27136037      6.58610601     51.63867716 Mo
atom      -1.63152028      7.52870934     53.29765208 Se
atom      -1.63150753      7.52859756     49.98064631 Se
atom      -4.90268978      9.41113752     51.63871609 Mo
atom      -3.26631134     10.35981726     53.29767651 Se
atom      -3.26645011     10.35992044     49.98066856 Se
atom      -6.52455532     12.24084948     51.65785116 Mo
atom      -4.87969579     13.20378692     53.30670966 Se
atom      -4.90153191     13.18895777     49.98702501 Se
atom       3.27272818      0.96206913     51.63682367 Mo
atom       4.95106885      1.98185594     53.25211893 Se
atom       4.87802158      1.90483352     49.93121787 Se
atom       1.65478343      3.76412254     51.63677660 Mo
atom       3.37718640      4.70751603     53.25205673 Se
atom       3.27403612      4.68279197     49.93122172 Se
atom       0.00835336      6.58606756     51.63868303 Mo
atom       1.66873720      7.51085612     53.27950747 Se
atom       1.63154460      7.53238201     49.96711762 Se
atom      -1.63161918      9.41617996     51.63923607 Mo
atom       0.00306061     10.35980453     53.29766307 Se
atom       0.00320353     10.35989211     49.98067011 Se
atom      -3.26288501     12.25123012     51.63872779 Mo
atom      -1.63173306     13.22664154     53.27953315 Se
atom      -1.63173030     13.18365004     49.96714767 Se
atom       6.52487116      0.98061538     51.59258448 Mo
atom       8.09862306      1.98182855     53.25211225 Se
atom       8.17164742      1.90485529     49.93120732 Se
atom       4.97936067      3.81532796     51.53542621 Mo
atom       6.52475361      4.70753398     49.81285493 Se
atom       3.29685992      6.57104514     51.59258063 Mo
atom       4.95092076      7.43321970     53.25206742 Se
atom       4.92073432      7.53495986     49.93116322 Se
atom       1.63950403      9.41114749     51.63870937 Mo
atom       3.27283803     10.33495094     53.30670488 Se
atom       3.27094052     10.36128524     49.98698948 Se
atom      -0.00053455     12.25124375     51.63871217 Mo
atom       1.61624839     13.20377193     53.30671549 Se
atom       1.63811066     13.18896517     49.98700116 Se
atom       9.77696487      0.96203501     51.63681243 Mo
atom      11.39790358      1.89431416     53.31313528 Se
atom      11.42433156      1.87900704     49.98812937 Se
atom       8.07013040      3.81533789     51.53545855 Mo
atom       9.67229464      4.70751110     53.25206492 Se
atom       9.77544267      4.68279674     49.93121839 Se
atom       6.52466278      6.49195915     51.53538393 Mo
atom       8.09835057      7.43319474     53.25207756 Se
atom       8.12856515      7.53497725     49.93117802 Se
atom       4.90670513      9.39652663     51.63680014 Mo
atom       6.52453752     10.33412186     53.31315061 Se
atom       6.52453622     10.36463551     49.98812877 Se
atom       3.26113897     12.24084261     51.65782850 Mo
atom       4.88834395     13.18024405     53.32572155 Se
atom       4.89567631     13.18445810     50.00324953 Se
atom      13.04615024      0.94279473     51.66406043 Mo
atom      14.68100201      1.88801691     53.32571348 Se
atom      14.68101360      1.87954225     50.00324693 Se
atom      11.39475380      3.76410762     51.63676881 Mo
atom      13.02443106      4.70970211     53.30666969 Se
atom      13.04818032      4.69821945     49.98696303 Se
atom       9.75242575      6.57102757     51.59258335 Mo
atom      11.38052705      7.51085210     53.27951616 Se
atom      11.41772364      7.53237335     49.96711573 Se
atom       8.14238967      9.39652112     51.63679997 Mo
atom       9.77621824     10.33494202     53.30670843 Se
atom       9.77816286     10.36127164     49.98700319 Se
atom       6.52446371     12.23717231     51.66407244 Mo
atom       8.16052064     13.18025584     53.32574501 Se
atom       8.15322275     13.18447384     50.00325868 Se
# 
# What follows is the current estimated Hessian matrix constructed by the BFGS algorithm.
# This is NOT the true Hessian matrix of the system.
# If you do not want this information here, switch it off using the "hessian_to_restart_geometry" keyword.
# 
