# 
# This is the geometry file that corresponds to the current relaxation step.
# If you do not want this file to be written, set the "write_restart_geometry" flag to .false.
#  aims_uuid : 1E5704D0-E0C5-43FE-A952-98EE630C0F9A                                
# 
  set_vacuum_level         2.836590
lattice_vector     26.28331574      0.00000000      0.00000000
lattice_vector     13.14165787     22.76201912      0.00000000
lattice_vector      0.00000000      0.00000000    107.15341248
atom      -0.03181074     -0.01438289     49.74003622 Au
atom       2.92603573      0.00014049     49.69767476 Au
atom       5.88063049     -0.02398726     49.77144808 Au
atom       8.81399772     -0.05317933     49.90539675 Au
atom      11.72259441     -0.06190439     50.02810412 Au
atom      14.61400846     -0.05988750     50.09550825 Au
atom      17.50046517     -0.06059185     50.08347395 Au
atom      20.39575741     -0.06129386     49.99678995 Au
atom      23.31096798     -0.04653892     49.86521229 Au
atom       1.45962401      2.56042408     49.72449629 Au
atom       4.38150204      2.55368950     49.73382070 Au
atom       7.30511986      2.51379014     49.79271463 Au
atom      10.22913791      2.47988514     49.85961549 Au
atom      13.14798075      2.46826619     49.90361968 Au
atom      16.06082832      2.46696985     49.91524656 Au
atom      18.97483284      2.46992429     49.89366755 Au
atom      21.89544402      2.48731415     49.84144319 Au
atom      24.81985101      2.52637830     49.77255119 Au
atom       2.91691412      5.13816667     49.83571876 Au
atom       5.81654965      5.11137764     49.83016486 Au
atom       8.72733582      5.06380004     49.82233530 Au
atom      11.65467917      5.02905104     49.81351120 Au
atom      14.59402465      5.01711627     49.80540218 Au
atom      17.53620599      5.01883234     49.80707860 Au
atom      20.47281037      5.03658730     49.81639143 Au
atom      23.39543079      5.07764262     49.82431090 Au
atom      26.30212644      5.12290372     49.83219792 Au
atom       4.36298840      7.68081434     49.99938605 Au
atom       7.25935593      7.64964522     49.92655511 Au
atom      10.17145271      7.61020634     49.84107839 Au
atom      13.10966356      7.58650500     49.78221182 Au
atom      16.06777561      7.58170626     49.76585538 Au
atom      19.02210748      7.59102424     49.79581271 Au
atom      21.95266023      7.62086273     49.86445265 Au
atom      24.85864640      7.66087996     49.95159010 Au
atom      27.75321406      7.68507518     50.01075448 Au
atom       5.81122106     10.18848875     50.13697078 Au
atom       8.71013220     10.16671059     49.98682879 Au
atom      11.63138540     10.14879006     49.84661255 Au
atom      14.58509450     10.14504513     49.77800836 Au
atom      17.55122883     10.14521052     49.78990934 Au
atom      20.49627498     10.15261748     49.88091504 Au
atom      23.40908719     10.17357852     50.03327123 Au
atom      26.30550533     10.19303537     50.16895866 Au
atom      29.19998727     10.19871249     50.20910199 Au
atom       7.25557641     12.68208589     50.19736558 Au
atom      10.15946061     12.67600177     49.99251157 Au
atom      13.09840788     12.68368853     49.84297605 Au
atom      16.07010425     12.68997513     49.80306080 Au
atom      19.03544125     12.68028889     49.87478147 Au
atom      21.96252925     12.67669774     50.05151472 Au
atom      24.86115890     12.68516887     50.24852975 Au
atom      27.75370231     12.69275519     50.35445829 Au
atom      30.64572929     12.69133619     50.33603860 Au
atom       8.69384095     15.17789271     50.15815433 Au
atom      11.61158914     15.18960452     49.94285682 Au
atom      14.57764832     15.21097119     49.82618429 Au
atom      17.56409908     15.20613352     49.84639747 Au
atom      20.51641034     15.18410835     49.99922561 Au
atom      23.42330944     15.17841873     50.22192292 Au
atom      26.31266983     15.18434280     50.38588694 Au
atom      29.19875438     15.18685392     50.43192621 Au
atom      32.08531552     15.18240219     50.34943183 Au
atom      10.13779925     17.68333618     50.03393581 Au
atom      13.08253959     17.70828409     49.85228056 Au
atom      16.07319872     17.72176342     49.79792691 Au
atom      19.05446883     17.70001903     49.89497731 Au
atom      21.98370530     17.67989973     50.09812554 Au
atom      24.87661585     17.68035115     50.29608484 Au
atom      27.75802638     17.68514346     50.40034813 Au
atom      30.63778334     17.68404766     50.38208257 Au
atom      33.52099780     17.67885010     50.24532493 Au
atom      11.60878443     20.20325781     49.87060693 Au
atom      14.57747355     20.22925502     49.75145179 Au
atom      17.56449357     20.22351811     49.77420668 Au
atom      20.52061706     20.19588796     49.92300781 Au
atom      23.43289525     20.18446667     50.10989968 Au
atom      26.31952293     20.18807358     50.24913058 Au
atom      29.19745473     20.19041045     50.28854045 Au
atom      32.07670853     20.18643759     50.21703017 Au
atom      34.96852924     20.18538388     50.05663184 Au
atom       1.45509348      0.84842583     52.07788278 Au
atom       4.38911971      0.84336943     52.09470986 Au
atom       7.32147940      0.81460600     52.20848416 Au
atom      10.24448167      0.79494317     52.35276659 Au
atom      13.15527300      0.79226503     52.46141977 Au
atom      16.05967309      0.79301798     52.49365186 Au
atom      18.96484849      0.79210095     52.43635327 Au
atom      21.87866699      0.79847523     52.31238084 Au
atom      24.80522834      0.82340865     52.16898235 Au
atom       2.91811933      3.40704875     52.13633699 Au
atom       5.82777303      3.38722385     52.15391025 Au
atom       8.74998620      3.35178537     52.19610324 Au
atom      11.67852520      3.32731579     52.24455923 Au
atom      14.60209766      3.31944713     52.27413123 Au
atom      17.52217575      3.32052735     52.26864390 Au
atom      20.44745364      3.33244986     52.23156959 Au
atom      23.37544072      3.36189626     52.18186252 Au
atom      26.29392782      3.39559565     52.14564019 Au
atom       4.36346586      5.95944099     52.30194634 Au
atom       7.26528649      5.93666894     52.24904969 Au
atom      10.18653660      5.90379599     52.19365020 Au
atom      13.12370735      5.88020858     52.15969358 Au
atom      16.06493960      5.87398029     52.15058959 Au
atom      19.00589769      5.88521848     52.16707422 Au
atom      21.93986853      5.91303831     52.20774036 Au
atom      24.85483034      5.94516018     52.26597783 Au
atom      27.75301326      5.96238355     52.31073823 Au
atom       5.81343316      8.48601692     52.47759190 Au
atom       8.71536027      8.47271764     52.33380939 Au
atom      11.63920817      8.45225667     52.19664343 Au
atom      14.58822854      8.43918053     52.12371260 Au
atom      17.54565635      8.44156628     52.13661953 Au
atom      20.48869834      8.45829662     52.23103170 Au
atom      23.40478141      8.47801237     52.37825919 Au
atom      26.30380789      8.48769537     52.50807157 Au
atom      29.20030124      8.48904658     52.54691486 Au
atom       7.26736673     10.99805826     52.58882712 Au
atom      10.17035128     10.99596980     52.37253327 Au
atom      13.10368978     10.99164282     52.19660387 Au
atom      16.06904312     10.99062746     52.14573553 Au
atom      19.02831429     10.99280801     52.23654879 Au
atom      21.95059820     10.99707301     52.43675568 Au
atom      24.85032433     10.99785730     52.63953564 Au
atom      27.75037350     10.99636881     52.74333857 Au
atom      30.65156696     10.99654168     52.72538612 Au
atom       8.71874338     13.51015674     52.60022004 Au
atom      11.62687623     13.51695422     52.34675543 Au
atom      14.58128298     13.52591598     52.19337263 Au
atom      17.55757154     13.52381269     52.22012031 Au
atom      20.49732931     13.51427622     52.41646794 Au
atom      23.39851078     13.50932731     52.66725765 Au
atom      26.29788985     13.50716162     52.83042182 Au
atom      29.20143894     13.50645033     52.87506257 Au
atom      32.10430278     13.50766602     52.79501201 Au
atom      10.16701416     16.02473144     52.50910411 Au
atom      13.09423665     16.04081691     52.26919999 Au
atom      16.07137904     16.04953902     52.19323492 Au
atom      19.03780722     16.03541580     52.32705713 Au
atom      21.95085487     16.02289449     52.58664021 Au
atom      24.84678735     16.02156951     52.80207859 Au
atom      27.74905171     16.02134171     52.90575401 Au
atom      30.65395346     16.02137573     52.88786366 Au
atom      33.55405301     16.02147907     52.75044566 Au
atom      11.62509813     18.54284791     52.34289297 Au
atom      14.58043648     18.56213619     52.17248613 Au
atom      17.55848850     18.55774381     52.20424768 Au
atom      20.49913411     18.53804111     52.41539091 Au
atom      23.40014543     18.53287695     52.65912890 Au
atom      26.29800332     18.53490993     52.81620394 Au
atom      29.20138110     18.53573335     52.85753509 Au
atom      32.10375007     18.53426351     52.78218543 Au
atom      34.99999851     18.53272631     52.59413227 Au
atom      13.10841551     21.06851772     52.16693381 Au
atom      16.06800126     21.07961837     52.10231630 Au
atom      19.02269462     21.06153798     52.21591955 Au
atom      21.94713682     21.04346904     52.42622649 Au
atom      24.84973195     21.04291184     52.61342208 Au
atom      27.75019532     21.04602000     52.70752919 Au
atom      30.65179076     21.04539343     52.69133823 Au
atom      33.55144697     21.04188935     52.56628296 Au
atom      36.45808762     21.04659557     52.36248019 Au
atom      26.29451241      1.68680909     54.45011413 Au
atom       2.91791812      1.68831516     54.42090431 Au
atom       5.82643669      1.68592406     54.47379170 Au
atom       8.74504045      1.68997297     54.59321332 Au
atom      11.67061515      1.71012666     54.72363819 Au
atom      14.59868943      1.72847751     54.79897293 Au
atom      17.52779727      1.72492763     54.78565084 Au
atom      20.45500951      1.70338035     54.68893096 Au
atom      23.37920646      1.68718211     54.55403747 Au
atom      27.74830941      4.20942985     54.53679214 Au
atom       4.37144484      4.20991472     54.53352049 Au
atom       7.28505918      4.21132727     54.52099008 Au
atom      10.21065264      4.21650098     54.53328554 Au
atom      13.13863505      4.22767717     54.56354261 Au
atom      16.06232441      4.23261875     54.57570645 Au
atom      18.98700378      4.22447109     54.55514583 Au
atom      21.91566577      4.21428869     54.52682100 Au
atom      24.83789054      4.21084845     54.52253681 Au
atom      29.20386910      6.72205761     54.77424836 Au
atom       5.84074089      6.72970161     54.71313906 Au
atom       8.75824103      6.74052381     54.59828018 Au
atom      11.68016547      6.74781756     54.50571340 Au
atom      14.60208890      6.75237402     54.46569387 Au
atom      17.52164792      6.75165428     54.47211073 Au
atom      20.44468460      6.74626360     54.52725843 Au
atom      23.36504590      6.73785149     54.63219473 Au
atom      26.28265178      6.72659009     54.73947449 Au
atom      30.67871771      9.23424918     54.99568669 Au
atom       7.32574844      9.24902753     54.86526603 Au
atom      10.23597774      9.26765176     54.66257188 Au
atom      13.14625530      9.27718285     54.50109146 Au
atom      16.06122790      9.27887829     54.45511651 Au
atom      18.97579324      9.27561203     54.53761178 Au
atom      21.88412454      9.26310171     54.72218339 Au
atom      24.79889375      9.24382256     54.91345435 Au
atom      27.73495223      9.23221117     55.01297379 Au
atom      32.16389667     11.76713043     55.11532979 Au
atom       8.80525354     11.78159154     54.92790429 Au
atom      11.70071447     11.80032857     54.66994057 Au
atom      14.60427977     11.80960134     54.50284503 Au
atom      17.51702962     11.80828281     54.53292335 Au
atom      20.41558265     11.79530947     54.74321083 Au
atom      23.31656355     11.77653745     54.99265785 Au
atom      26.25134449     11.76479462     55.14932106 Au
atom      29.20990613     11.76163652     55.19171543 Au
atom      33.63935150     14.31774273     55.12709057 Au
atom      10.26368976     14.32719053     54.88763381 Au
atom      13.15151270     14.34222278     54.61511026 Au
atom      16.06140518     14.34809610     54.52290077 Au
atom      18.96488329     14.33795045     54.68374707 Au
atom      21.85273007     14.32374902     54.96683898 Au
atom      24.77224130     14.31662370     55.17677281 Au
atom      27.72688955     14.31518428     55.27755322 Au
atom      30.69338477     14.31525827     55.26024995 Au
atom      35.09478363     16.87232934     55.03113451 Au
atom      11.70434241     16.87459534     54.75201221 Au
atom      14.60339529     16.88469601     54.53603763 Au
atom      17.51762435     16.88231148     54.57683386 Au
atom      20.40962926     16.87282292     54.83788310 Au
atom      23.31095319     16.87359739     55.09567008 Au
atom      26.24902421     16.87997597     55.24919213 Au
atom      29.21011047     16.88304722     55.29042486 Au
atom      32.16688736     16.87803222     55.21626190 Au
atom      36.53444955     19.41123498     54.82963287 Au
atom      13.14873670     19.41065616     54.57016749 Au
atom      16.06126613     19.41391664     54.48001041 Au
atom      18.96958186     19.40930875     54.63739768 Au
atom      21.86685734     19.41481242     54.90655213 Au
atom      24.78660295     19.43161393     55.10946083 Au
atom      27.73191373     19.44464063     55.20315112 Au
atom      30.68454439     19.44203405     55.18693175 Au
atom      33.62370971     19.42630942     55.06148302 Au
atom      37.97866779     21.92990615     54.58242951 Au
atom      14.60507151     21.93231107     54.43585544 Au
atom      17.51542839     21.93139395     54.46295961 Au
atom      20.42508807     21.93155456     54.64549233 Au
atom      23.33815062     21.95080434     54.86288940 Au
atom      26.26682812     21.97530469     55.00572182 Au
atom      29.20674098     21.98353024     55.04299834 Au
atom      32.14463531     21.96903178     54.97453197 Au
atom      35.06808255     21.94329359     54.80389749 Au
atom       0.07457733      0.03840480     56.89782402 Au
atom       2.90682276      0.02347626     56.84930781 Au
atom       5.74334286      0.05002077     56.93622741 Au
atom       8.61761921      0.10963499     57.11759298 Au
atom      11.56269900      0.18279018     57.26809678 Au
atom      14.56620071      0.23092814     57.33740413 Au
atom      17.58560265      0.22200683     57.32523635 Au
atom      20.57592653      0.16220977     57.23242639 Au
atom      23.49883688      0.08961149     57.06270635 Au
atom       1.47762508      2.47737781     56.87626143 Au
atom       4.34835197      2.48454426     56.87961483 Au
atom       7.22942661      2.53525968     56.92039869 Au
atom      10.13899764      2.61121631     57.01536254 Au
atom      13.09121024      2.68545074     57.10552863 Au
atom      16.07111116      2.71086103     57.13215909 Au
atom      19.04616585      2.66709903     57.08445034 Au
atom      21.98576134      2.58781248     56.98455537 Au
atom      24.88454376      2.51724463     56.90215817 Au
atom       2.91924331      4.90955336     57.03281107 Au
atom       5.83348246      4.94467057     56.99210027 Au
atom       8.74643049      5.01612992     56.93452601 Au
atom      11.66481527      5.09441745     56.92258242 Au
atom      14.59600285      5.14615836     56.93684919 Au
atom      17.53214145      5.13654180     56.93335503 Au
atom      20.45970524      5.07303591     56.92110169 Au
atom      23.37519205      4.99372762     56.94839192 Au
atom      26.28798579      4.92951098     57.00898251 Au
atom       4.41217507      7.37963204     57.24011597 Au
atom       7.36217961      7.43559476     57.13793836 Au
atom      10.27824474      7.51636249     56.98676761 Au
atom      13.17161207      7.58439586     56.89095254 Au
atom      16.05669389      7.60610332     56.87036390 Au
atom      18.94313498      7.56827973     56.90940638 Au
atom      21.84124964      7.49300770     57.02909559 Au
atom      24.76678415      7.41566629     57.17559622 Au
atom      27.72516653      7.37186145     57.25340346 Au
atom       5.95036125      9.92163935     57.37231442 Au
atom       8.90676275      9.98179883     57.22667352 Au
atom      11.79079719     10.05510990     57.01847948 Au
atom      14.63304083     10.10117911     56.88905175 Au
atom      17.46637986     10.09280940     56.91103776 Au
atom      20.31652480     10.03483239     57.07813151 Au
atom      23.22000086      9.96195819     57.27772902 Au
atom      26.19672972      9.90974898     57.39804079 Au
atom      29.21933086      9.89425684     57.42993909 Au
atom       7.49002046     12.52731698     57.42172279 Au
atom      10.41447057     12.57741753     57.23593605 Au
atom      13.24656635     12.62972086     56.99736979 Au
atom      16.04398987     12.64612050     56.90937541 Au
atom      18.84598320     12.61694607     57.06145357 Au
atom      21.70030277     12.56121150     57.29801495 Au
atom      24.65466811     12.51670894     57.45968268 Au
atom      27.69240908     12.49414898     57.53539202 Au
atom      30.75491311     12.49808288     57.52253606 Au
atom       8.98889112     15.16323446     57.38990808 Au
atom      11.85982923     15.19111181     57.16389222 Au
atom      14.65225572     15.20965610     56.94417688 Au
atom      17.43191467     15.20661282     56.98892821 Au
atom      20.23912827     15.18249730     57.23762789 Au
atom      23.14240123     15.15805607     57.43915164 Au
atom      26.15353030     15.14815258     57.55649237 Au
atom      29.22718432     15.14594351     57.58796368 Au
atom      32.28972887     15.14993316     57.53153073 Au
atom      10.43263727     17.77865429     57.27598200 Au
atom      13.25852755     17.77273607     57.02514534 Au
atom      16.04177275     17.76897267     56.91822931 Au
atom      18.83013684     17.77445720     57.09812711 Au
atom      21.68201038     17.78151082     57.33733289 Au
atom      24.64160468     17.79756600     57.49348446 Au
atom      27.68849693     17.81042608     57.56621257 Au
atom      30.76153651     17.80802619     57.55409575 Au
atom      33.78797029     17.79230884     57.45684390 Au
atom      11.83221423     20.32473404     57.08182957 Au
atom      14.64491263     20.29951351     56.89652446 Au
atom      17.44426037     20.30425805     56.93276091 Au
atom      20.27002310     20.33602052     57.15178483 Au
atom      23.17744102     20.38251332     57.34734952 Au
atom      26.17528772     20.42612670     57.45928366 Au
atom      29.22314641     20.44028085     57.48826721 Au
atom      32.26198334     20.41538601     57.43528834 Au
atom      35.23607360     20.36806849     57.29942381 Au
atom       6.25740983      5.63996038     61.31735326 Mo
atom       7.91674318      6.55256503     62.84165011 S
atom       7.87220358      6.62784262     59.79096238 S
atom       7.88873273      8.48624003     61.36528542 Mo
atom       9.56749825      9.39446731     62.87109104 S
atom       9.48035473      9.47096546     59.81738599 S
atom       9.52177348     11.32297908     61.39022668 Mo
atom      11.21347037     12.24396399     62.87464602 S
atom      11.10433145     12.28973040     59.82087238 S
atom      11.16049114     14.15605588     61.37372786 Mo
atom      12.85138814     15.09485381     62.84906918 S
atom      12.75522200     15.10278002     59.79713376 S
atom      12.80731436     16.99045634     61.32785716 Mo
atom      14.48110730     17.94281213     62.81864319 S
atom      14.43822832     17.92708697     59.77257789 S
atom      14.46254107     19.83269363     61.28786837 Mo
atom      16.11293075     20.79098552     62.80442840 S
atom      16.12569791     20.77096091     59.76317929 S
atom       2.97618564     -0.07641756     61.27494605 Mo
atom       4.61492619      0.87818473     62.80333230 S
atom       4.64157966      0.87071874     59.76291726 S
atom       4.62191698      2.78351887     61.28309448 Mo
atom       6.26521509      3.71790666     62.81423524 S
atom       6.26654474      3.75160711     59.76953117 S
atom       9.54343223      5.62552874     61.28426521 Mo
atom      11.19697712      6.56475168     62.79773279 S
atom      11.16728390      6.57977733     59.74783237 S
atom      11.17449915      8.47421811     61.29025527 Mo
atom      12.84254079      9.40427117     62.79461106 S
atom      12.78861160      9.43578960     59.74335871 S
atom      12.81314928     11.31518242     61.29143192 Mo
atom      14.48071942     12.24874781     62.79625599 S
atom      14.44299216     12.27055502     59.74593270 S
atom      14.46227611     14.15225346     61.28500442 Mo
atom      16.11066335     15.09443537     62.80907421 S
atom      16.12948217     15.09866245     59.76032920 S
atom      16.11945417     16.98992436     61.28758467 Mo
atom      17.74233646     17.94453861     62.83353531 S
atom      17.81606914     17.92558723     59.78558662 S
atom      17.77408171     19.83205510     61.30008878 Mo
atom      19.38466820     20.79990872     62.84907695 S
atom      19.47190591     20.75290208     59.80150091 S
atom       6.27822074     -0.08244224     61.30215025 Mo
atom       7.89387999      0.89028457     62.83885354 S
atom       7.95619183      0.83318129     59.79099538 S
atom       7.91420808      2.77088978     61.29038569 Mo
atom       9.54679613      3.73083400     62.81409943 S
atom       9.56348767      3.70200494     59.76558781 S
atom      12.82977308      5.61076359     61.26602906 Mo
atom      14.47449764      6.57250429     62.77599492 S
atom      14.46772342      6.54611160     59.72636505 S
atom      14.46810977      8.46456750     61.24750407 Mo
atom      16.11263452      9.40782392     62.77084566 S
atom      16.12213580      9.42155305     59.72161624 S
atom      16.11815489     11.31206353     61.25918546 Mo
atom      17.74260293     12.24781974     62.81097819 S
atom      17.80817004     12.27501977     59.75927762 S
atom      17.77428816     14.15307415     61.30200505 Mo
atom      19.37355462     15.09482755     62.87881328 S
atom      19.48822032     15.10468060     59.82611064 S
atom      19.42663342     16.99056573     61.35741076 Mo
atom      21.01535518     17.95142247     62.93359182 S
atom      21.13806265     17.91806378     59.88220402 S
atom      21.07106660     19.82892001     61.38657331 Mo
atom      22.66629127     20.81160260     62.93997003 S
atom      22.76456966     20.73060310     59.88863309 S
atom       9.56636086     -0.09140932     61.36752982 Mo
atom      11.17761244      0.90253648     62.89375085 S
atom      11.23600382      0.79765363     59.84145652 S
atom      11.19852806      2.75662622     61.31460066 Mo
atom      12.82868061      3.74129969     62.82478867 S
atom      12.84552942      3.65946045     59.77249856 S
atom      16.11476180      5.60617923     61.26285669 Mo
atom      17.75324804      6.57115152     62.77940598 S
atom      17.76599206      6.55228908     59.72994585 S
atom      17.76465105      8.46654613     61.25480952 Mo
atom      19.38319165      9.40158621     62.81285814 S
atom      19.45194020      9.44560792     59.76035265 S
atom      19.41989584     11.31721639     61.31575301 Mo
atom      21.01384274     12.24233332     62.90772808 S
atom      21.12858084     12.29541742     59.85392716 S
atom      21.07044293     14.15734529     61.40981042 Mo
atom      22.65595196     15.09578254     63.00302862 S
atom      22.77401395     15.11043580     59.94863373 S
atom      22.71316561     16.99172179     61.47888200 Mo
atom      24.30731413     17.95693209     63.04567736 S
atom      24.39874795     17.91306091     59.99001263 S
atom      24.35032214     19.82588224     61.48642214 Mo
atom      25.95988348     20.81858279     63.01805797 S
atom      26.01453447     20.71889017     59.96336340 S
atom      12.84237107     -0.09772987     61.42918264 Mo
atom      14.46904171      0.90877537     62.93126450 S
atom      14.48717916      0.78190422     59.87748754 S
atom      14.47593877      2.74903851     61.33577663 Mo
atom      16.11521567      3.74436143     62.83030356 S
atom      16.11182801      3.64750295     59.77694043 S
atom      19.40028516      5.61429857     61.26923267 Mo
atom      21.03051540      6.56132772     62.80887952 S
atom      21.06692250      6.59404216     59.75864943 S
atom      21.05626315      8.47795559     61.31043240 Mo
atom      22.66186797      9.39176877     62.89714257 S
atom      22.74800413      9.47979584     59.84378165 S
atom      22.70691135     11.32513635     61.42210395 Mo
atom      24.30370090     12.23890132     63.01848986 S
atom      24.39352719     12.30949295     59.96346570 S
atom      24.34909606     14.16072417     61.52633849 Mo
atom      25.95524693     15.09760373     63.09816413 S
atom      26.01719856     15.11312208     60.03919158 S
atom      25.98612361     16.99234123     61.57045284 Mo
atom      27.60798392     17.95967058     63.10636458 S
atom      27.63352570     17.91188136     60.04682766 S
atom      27.62027440     19.82502386     61.54193161 Mo
atom      29.25865926     20.82037666     63.04122201 S
atom      29.24908128     20.71649739     59.98513462 S
atom      16.11257446     -0.09923587     61.44833723 Mo
atom      17.76320847      0.90760082     62.92420491 S
atom      17.73108540      0.78437358     59.87081129 S
atom      17.75108036      2.75025958     61.33162332 Mo
atom      19.40059014      3.73892321     62.82126838 S
atom      19.38107199      3.66910468     59.76975762 S
atom      22.68661048      5.63017702     61.29320150 Mo
atom      24.31345037      6.54946571     62.85551390 S
atom      24.35606903      6.63913907     59.80471560 S
atom      24.33980054      8.48880973     61.38659836 Mo
atom      25.95562632      9.38607882     62.97295875 S
atom      26.00727622      9.50020853     59.92012970 S
atom      25.98289813     11.33023812     61.50988575 Mo
atom      27.60659762     12.23909208     63.08011078 S
atom      27.63228027     12.31484404     60.02238915 S
atom      27.61979890     14.16255211     61.58807571 Mo
atom      29.25934227     15.09849112     63.12483855 S
atom      29.24871143     15.11385414     60.06418483 S
atom      29.25391086     16.99272639     61.59596204 Mo
atom      30.90991549     17.95910514     63.09583531 S
atom      30.86394565     17.91189462     60.03705526 S
atom      30.88795778     19.82496097     61.53223269 Mo
atom      32.55642313     20.81719548     62.99991547 S
atom      32.48556251     20.72115413     59.94608903 S
atom      19.38414719     -0.09638259     61.41438482 Mo
atom      21.05269379      0.89964917     62.87782506 S
atom      20.98853686      0.80630069     59.82623627 S
atom      21.03006077      2.76047742     61.30653433 Mo
atom      22.68144095      3.72686147     62.81286502 S
atom      22.66911709      3.71718656     59.76573173 S
atom      25.97203043      5.64296949     61.32604785 Mo
atom      27.60864000      6.54296017     62.88874518 S
atom      27.62333183      6.66161247     59.83914878 S
atom      27.61720425      8.49433188     61.43519248 Mo
atom      29.25934285      9.38503510     62.99618011 S
atom      29.25012979      9.50511020     59.94321773 S
atom      29.25450612     11.33168784     61.53534626 Mo
atom      30.91223889     12.23890374     63.06937144 S
atom      30.86623890     12.31400728     60.01219644 S
atom      30.88867911     14.16211076     61.57749218 Mo
atom      32.56274083     15.09711792     63.07689011 S
atom      32.48143184     15.11259765     60.01923063 S
atom      32.52282877     16.99224671     61.55004354 Mo
atom      34.20934083     17.95584128     63.01663166 S
atom      34.10325029     17.91419762     59.96248228 S
atom      34.15966933     19.82684395     61.46015603 Mo
atom      35.84739351     20.80845649     62.91210085 S
atom      35.74531105     20.73608737     59.86163259 S
atom      22.66256284     -0.08899109     61.34670802 Mo
atom      24.33390562      0.88625278     62.82552550 S
atom      24.27927669      0.84545718     59.78010330 S
atom      24.31724333      2.77524823     61.28663222 Mo
atom      25.96541508      3.71530026     62.81591515 S
atom      25.96645041      3.76240535     59.77175461 S
atom      29.25656393      5.64624203     61.33827795 Mo
atom       4.62508169      6.54419050     62.88262521 S
atom       4.59956794      6.65800273     59.83257485 S
atom      30.89316733      8.49343957     61.42642690 Mo
atom       6.27804909      9.38703487     62.95509895 S
atom       6.21226307      9.49593099     59.90229405 S
atom      32.52683251     11.32906608     61.48983809 Mo
atom       7.92927969     12.23951853     62.98946788 S
atom       7.82634621     12.30654346     59.93529031 S
atom      34.16080642     14.16012835     61.49653626 Mo
atom       9.57536812     15.09539156     62.96694955 S
atom       9.44988820     15.10902478     59.91354728 S
atom      35.79839905     16.99141723     61.44381516 Mo
atom      11.21283840     17.94942954     62.89952213 S
atom      11.09447021     17.92032947     59.84861728 S
atom      37.44369722     19.82985495     61.35682557 Mo
atom      12.84166382     20.79665774     62.82976292 S
atom      12.77129267     20.76020355     59.78418149 S
atom      25.95554825     -0.07978767     61.28970777 Mo
atom       1.33099336      0.87622956     62.79914999 S
atom       1.31643298      0.87654687     59.75942909 S
atom      27.61047488      2.78499270     61.28293419 Mo
atom       2.97437083      3.71153311     62.81911383 S
atom       2.97365938      3.77600491     59.77537823 S
# 
# What follows is the current estimated Hessian matrix constructed by the BFGS algorithm.
# This is NOT the true Hessian matrix of the system.