# 
# This is the geometry file that corresponds to the current relaxation step.
# If you do not want this file to be written, set the "write_restart_geometry" flag to .false.
#  aims_uuid : 6C4D55F7-4CE2-4425-A65E-0F39029EAAD4                                
# 
  set_vacuum_level       103.343980
lattice_vector     16.35742505      0.00000000      0.00000000
lattice_vector     -8.17073830     14.17072870      0.00000000
lattice_vector      0.00000000      0.00000000    103.34910518
atom      -0.00049962      0.94036330     51.71393765 W
atom       1.65301613      1.91134839     53.36880748 Se
atom       1.63063546      1.89612656     50.03582231 Se
atom      -1.62894313      3.78686779     51.72037781 W
atom       0.02322187      4.77561264     53.36042279 Se
atom      -0.00600685      4.71535231     50.01988993 Se
atom      -3.25397364      6.63717862     51.71424541 W
atom      -1.53993597      7.66583335     53.32442408 Se
atom      -1.64389107      7.57293422     49.98931329 Se
atom      -4.89045603      9.43710404     51.69201164 W
atom      -3.15476798     10.38356740     53.30924617 Se
atom      -3.25243531     10.36081937     49.98587556 Se
atom      -6.53825069     12.26804923     51.69319633 W
atom      -4.87157604     13.20478165     53.34585712 Se
atom      -4.90796709     13.22581343     50.01238452 Se
atom       3.27817356      0.94580152     51.69321346 W
atom       4.91525064      1.90717097     53.35311995 Se
atom       4.91445630      1.88808240     50.01883658 Se
atom       1.64762969      3.81130096     51.69164601 W
atom       3.31796496      4.85148602     53.32020307 Se
atom       3.26592104      4.75187005     49.98578591 Se
atom       0.02317816      6.64258947     51.64492864 W
atom       1.69505248      7.64411332     53.25858413 Se
atom       1.66538673      7.55149068     49.93536393 Se
atom      -1.50913604      9.50482302     51.58960486 W
atom       0.00772004     10.38582160     49.80563872 Se
atom      -3.23946852     12.26188622     51.64926979 W
atom      -1.56995019     13.12675424     53.30922453 Se
atom      -1.59908200     13.22271373     49.98582150 Se
atom       6.55374028      0.93240715     51.69202872 W
atom       8.16294928      1.87948275     53.38606868 Se
atom       8.18727609      1.89500043     50.04266429 Se
atom       4.90538697      3.81181104     51.66595105 W
atom       6.48485408      4.81680549     53.33496751 Se
atom       6.56376250      4.73959241     50.00384785 Se
atom       3.37952283      6.69351487     51.58407861 W
atom       4.92404136      7.54550902     49.82087493 Se
atom       1.56745231      9.48468850     51.54377789 W
atom       3.22565148     10.29362510     53.25854183 Se
atom       3.29101378     10.36554807     49.93526616 Se
atom       0.01323021     12.14004239     51.58951931 W
atom       1.59095573     13.08526622     53.32433663 Se
atom       1.61950224     13.22174542     49.98922387 Se
atom       9.79660876      0.91328485     51.71418232 W
atom      11.43377047      1.85644370     53.39832551 Se
atom      11.44177760      1.88706789     50.06126945 Se
atom       8.17266526      3.78908567     51.71698072 W
atom       9.80081623      4.72809627     53.40474362 Se
atom       9.82254213      4.71552917     50.05807561 Se
atom       6.43854091      6.67052569     51.60752195 W
atom       8.06749640      7.55643759     53.33494636 Se
atom       8.17381354      7.52659844     50.00381664 Se
atom       4.89055073      9.30923623     51.58396128 W
atom       6.45550274     10.28262145     53.32014868 Se
atom       6.51583440     10.37745152     49.98566680 Se
atom       3.25817034     12.24220786     51.64486512 W
atom       4.87552606     13.17480086     53.36035423 Se
atom       4.91311579     13.23023823     50.01981265 Se
atom      13.07756435      0.92925568     51.72035758 W
atom      14.72280337      1.88444641     53.39006299 Se
atom      14.71448748      1.88926934     50.05237161 Se
atom      11.44969864      3.77543872     51.74007713 W
atom      13.10417256      4.74777763     53.39837610 Se
atom      13.08165116      4.72555600     50.06130697 Se
atom       9.80092280      6.60760585     51.71696913 W
atom      11.45039063      7.56993855     53.38606695 Se
atom      11.44911044      7.54106120     50.04270410 Se
atom       8.14908850      9.42673016     51.66588318 W
atom       9.80404172     10.36962098     53.35308330 Se
atom       9.82020561     10.37983003     50.01882382 Se
atom       6.52226609     12.24920646     51.69154620 W
atom       8.17090995     13.19361000     53.36875938 Se
atom       8.17294225     13.22062056     50.03580093 Se
# 
# What follows is the current estimated Hessian matrix constructed by the BFGS algorithm.
# This is NOT the true Hessian matrix of the system.
# If you do not want this information here, switch it off using the "hessian_to_restart_geometry" keyword.
# 
trust_radius             0.0001748889
hessian_file
