# 
# This is the geometry file that corresponds to the current relaxation step.
# If you do not want this file to be written, set the "write_restart_geometry" flag to .false.
#  aims_uuid : 5546EDCB-6CF7-416D-A279-4F7C25229753                                
# 
lattice_vector     15.72118630     -0.00130770      0.00000000
lattice_vector     -7.86163315     13.61413775      0.00000000
lattice_vector      0.00000000      0.00000000    103.10805205
atom       7.07350818     13.15290024     51.55402596 Mo
atom       0.78815348      0.45253666     53.10643677 S
atom       0.78815346      0.45253667     50.00161527 S
atom      13.35740342      2.27100616     51.55402596 Mo
atom      -0.78626704      3.17900308     53.10644624 S
atom      -0.78626705      3.17900308     50.00160581 S
atom      11.74966487      4.98610887     51.55402596 Mo
atom      -2.38211606      5.89240552     53.10414591 S
atom      -2.38211607      5.89240552     50.00390614 S
atom      10.17039881      7.68598129     51.55402596 Mo
atom      -3.95686629      8.60727205     53.10175219 S
atom      -3.95686630      8.60727205     50.00629986 S
atom       8.62135313     10.40318965     51.55402596 Mo
atom      -5.52115623     11.32814666     53.10411855 S
atom      -5.52115624     11.32814666     50.00393350 S
atom      -5.50233226     13.15953170     51.55402596 Mo
atom       3.93594967      0.47731885     53.10414512 S
atom       3.93594966      0.47731885     50.00390693 S
atom       0.79129993      2.27206547     51.55402596 Mo
atom       2.36996166      3.18321473     53.10737382 S
atom       2.36996164      3.18321473     50.00067823 S
atom      -0.78646371      4.99305550     51.55402596 Mo
atom       0.80913977      5.89213690     53.10414065 S
atom       0.80913976      5.89213689     50.00391140 S
atom      -2.37315257      7.70638927     51.55402596 Mo
atom      -0.78671540      8.61486248     53.10157909 S
atom      -0.78671541      8.61486247     50.00647296 S
atom      -3.94542656     10.42904716     51.55402596 Mo
atom      -2.36519635     11.34830493     53.10155448 S
atom      -2.36519636     11.34830493     50.00649757 S
atom      -2.35917943     13.17643443     51.55402596 Mo
atom       7.07450302      0.48298611     53.10176723 S
atom       7.07450301      0.48298611     50.00628482 S
atom       3.94653643      2.30626427     51.55402596 Mo
atom       5.54656216      3.28543252     53.10283704 S
atom       5.54656215      3.28543252     50.00521501 S
atom       2.39859695      4.98687763     51.55402596 Mo
atom       4.04686537      5.88248471     53.10275469 S
atom       4.04686536      5.88248471     50.00529736 S
atom       0.79977605      7.70613462     51.55402596 Mo
atom       2.38344389      8.60674542     53.10175523 S
atom       2.38344388      8.60674542     50.00629682 S
atom      -0.78690293     10.43708166     51.55402596 Mo
atom       0.79134128     11.34803904     53.10155998 S
atom       0.79134127     11.34803904     50.00649207 S
atom       0.78495894     13.17615925     51.55402596 Mo
atom      10.21308453      0.47673695     53.10415845 S
atom      10.21308453      0.47673695     50.00389360 S
atom       7.07430327      2.32327000     51.55402596 Mo
atom       8.60210761      3.28507705     53.10277455 S
atom       8.60210760      3.28507705     50.00527750 S
atom       5.65615551      5.08007083     51.55402596 Mo
atom       3.97738752      7.68649769     51.55402596 Mo
atom       5.57443915      8.52831325     53.10277012 S
atom       5.57443914      8.52831326     50.00528193 S
atom       2.37160960     10.42851737     51.55402596 Mo
atom       3.94729796     11.32738877     53.10412668 S
atom       3.94729795     11.32738877     50.00392537 S
atom       3.92815009     13.15874388     51.55402596 Mo
atom      13.36090883      0.45148733     53.10643676 S
atom      13.36090882      0.45148733     50.00161529 S
atom      10.20214666      2.30564785     51.55402596 Mo
atom      11.77868164      3.18242110     53.10735569 S
atom      11.77868163      3.18242110     50.00069636 S
atom       8.49215171      5.07978237     51.55402596 Mo
atom      10.10134220      5.88198008     53.10276488 S
atom      10.10134219      5.88198008     50.00528717 S
atom       7.07391978      7.53573802     51.55402596 Mo
atom       8.57330789      8.52795626     53.10284254 S
atom       8.57330788      8.52795626     50.00520951 S
atom       5.52601014     10.40351014     51.55402596 Mo
atom       7.07368915     11.33017318     53.10737319 S
atom       7.07368914     11.33017319     50.00067886 S
# 
# What follows is the current estimated Hessian matrix constructed by the BFGS algorithm.
# This is NOT the true Hessian matrix of the system.
# If you do not want this information here, switch it off using the "hessian_to_restart_geometry" keyword.
# 
trust_radius             0.0003360043
hessian_file
