# 
# This is the geometry file that corresponds to the current relaxation step.
# If you do not want this file to be written, set the "write_restart_geometry" flag to .false.
#  aims_uuid : 68781D8A-4753-41CB-AA0A-9CA0C0CC5F2F                                
# 
  set_vacuum_level        52.697273
lattice_vector     15.76960250      0.00000000      0.00000000
lattice_vector     -7.88732950     13.65525595      0.00000000
lattice_vector      0.00000000      0.00000000     99.30554027
atom       1.62146002      0.97941794      3.14392488 Mo
atom       0.04016278      1.88537088      4.71365316 S
atom       0.04307418      1.88701137      1.57999985 S
atom       0.04566434      3.70760162      3.14389038 Mo
atom      -1.56266748      4.61663269      4.69701778 S
atom      -1.53726300      4.60003395      1.56598848 S
atom      -1.55911500      6.42630393      3.11890993 Mo
atom      -3.18844119      7.31741868      4.65856930 S
atom      -3.14031096      7.32468103      1.53982381 S
atom      -3.15217831      9.14688412      3.10378670 Mo
atom      -4.75513676     10.02970667      4.65858742 S
atom      -4.72476796     10.06782265      1.53983588 S
atom      -4.71280197     11.88615732      3.11896087 Mo
atom      -6.28224730     12.78746314      4.69703056 S
atom      -6.28386627     12.81777899      1.56603596 S
atom       4.77572260      0.99287070      3.09104852 Mo
atom       3.23417173      1.91664706      4.68584703 S
atom       3.17990430      1.89845206      1.55924370 S
atom       3.24184542      3.73392125      3.10575197 Mo
atom       1.66376347      4.63548385      4.68583122 S
atom       1.62093918      4.59750614      1.55919187 S
atom       1.63396404      6.43225593      3.09097774 Mo
atom       0.04946235      7.34432008      4.66577649 S
atom       0.02071752      7.32385639      1.53862073 S
atom       0.02714617      9.15613039      3.08859204 Mo
atom      -1.55572125     10.06845509      4.65609004 S
atom      -1.56977151     10.06036662      1.53214756 S
atom      -1.55502362     11.89523983      3.08861736 Mo
atom      -3.11336943     12.82003049      4.66582190 S
atom      -3.14548955     12.80537557      1.53868540 S
atom       7.91753073      0.99896912      3.03252715 Mo
atom       6.40072320      1.99856226      4.58211396 S
atom       6.32170240      1.88102704      1.45369421 S
atom       6.41045003      3.75799814      2.93963908 Mo
atom       5.00619237      4.75250967      4.57396378 S
atom       4.75900218      4.60968122      1.42963313 S
atom       4.84657426      6.46567649      2.93962660 Mo
atom       3.31745459      7.33652142      4.58202804 S
atom       3.17631634      7.32682411      1.45366137 S
atom       3.20975892      9.14974102      3.03248234 Mo
atom       1.63596794     10.05836885      4.62666112 S
atom       1.59216794     10.07238149      1.50410542 S
atom       1.60811464     11.89515911      3.07581330 Mo
atom       0.03085804     12.83716789      4.62670985 S
atom       0.02108202     12.79226663      1.50411701 S
atom      11.06528599      0.97789723      3.09351954 Mo
atom       9.43788469      1.94785155      4.60947821 S
atom       9.52299395      1.88715024      1.47101643 S
atom       9.43720657      3.71874753      2.99503771 Mo
atom       7.95003853      4.61851358      1.36123523 S
atom       7.84193622      6.38980967      2.91309062 Mo
atom       6.36168726      7.36854236      1.36113288 S
atom       6.32540996      9.10626330      2.99485386 Mo
atom       4.79176900      9.99179626      4.60940908 S
atom       4.78167498     10.09592715      1.47086058 S
atom       4.76477334     11.88597625      3.09347175 Mo
atom       3.17399992     12.79908770      4.65736142 S
atom       3.19525800     12.81140172      1.52287621 S
atom      14.22786835      0.97214188      3.13700304 Mo
atom      12.62474830      1.88102911      4.68826372 S
atom      12.66599700      1.88278688      1.55438559 S
atom      12.63030119      3.69985948      3.11734146 Mo
atom      10.95230990      4.60484271      4.62932917 S
atom      11.07463350      4.58755475      1.49556475 S
atom      11.00256015      6.40238062      3.06483155 Mo
atom       9.28677071      7.22378855      4.57957943 S
atom       9.45101154      7.31871539      1.44589211 S
atom       9.43261062      9.12035744      3.06481799 Mo
atom       7.85032188      9.97502759      4.62930157 S
atom       7.89664166     10.08979753      1.49545556 S
atom       7.90502572     11.88061909      3.11733513 Mo
atom       6.32668475     12.78481740      4.68826419 S
atom       6.34887421     12.81966604      1.55435635 S
# 
# What follows is the current estimated Hessian matrix constructed by the BFGS algorithm.
# This is NOT the true Hessian matrix of the system.
# If you do not want this information here, switch it off using the "hessian_to_restart_geometry" keyword.
# 
trust_radius             0.0002874470
hessian_file
