# 
# This is the geometry file that corresponds to the current relaxation step.
# If you do not want this file to be written, set the "write_restart_geometry" flag to .false.
#  aims_uuid : 7CCB0A5E-8A7B-439E-AB74-499412DD5678                                
# 
  set_vacuum_level        52.568975
lattice_vector     15.80931190      0.00000000      0.00000000
lattice_vector     -7.90633915     13.69010115      0.00000000
lattice_vector      0.00000000      0.00000000     99.93885963
atom       0.00054871      0.91415886      2.59884809 W
atom       1.58430266      1.81190197      4.17302289 S
atom       1.58416906      1.81136239      1.02425190 S
atom      -1.55931025      3.67170943      2.59873329 W
atom       0.03848954      4.59402817      4.16020669 S
atom       0.03815120      4.59401084      1.03678903 S
atom      -3.16819529      6.40091556      2.59892552 W
atom      -1.59901276      7.32354493      4.17328017 S
atom      -1.59928441      7.32371555      1.02443547 S
atom      -4.73545593      9.14339815      2.59901995 W
atom      -3.16173507     10.05667559      4.18139361 S
atom      -3.16177065     10.05664354      1.01656441 S
atom      -6.31367509     11.87614178      2.59898594 W
atom      -4.73584124     12.78242776      4.18130263 S
atom      -4.73586699     12.78220797      1.01648716 S
atom       3.17026871      0.90615923      2.59873939 W
atom       4.75610266      1.81164347      4.17317473 S
atom       4.75626039      1.81143479      1.02432659 S
atom       1.63052569      3.64322751      2.59824078 W
atom       3.16998639      4.52781202      4.17024995 S
atom       3.16995266      4.52635069      1.02566728 S
atom       0.01040508      6.44816078      2.59857849 W
atom       1.54570265      7.33928242      4.17121225 S
atom       1.54559825      7.33928714      1.02661581 S
atom      -1.59065308      9.14975507      2.59896698 W
atom      -0.01367874     10.07041278      4.17350881 S
atom      -0.01343019     10.07030459      1.02461730 S
atom      -3.15791249     11.87615410      2.59894776 W
atom      -1.57791315     12.78834190      4.18074897 S
atom      -1.57782721     12.78823748      1.01716495 S
atom       6.33998927      0.91416212      2.59889509 W
atom       7.91206798      1.84308404      4.17648615 S
atom       7.91215165      1.84310089      1.02143897 S
atom       4.70946029      3.64307214      2.59864629 W
atom       6.30137897      4.59375926      4.16072108 S
atom       6.30152738      4.59406138      1.03729178 S
atom       4.79391352      7.33948188      4.17236135 S
atom       4.79259106      7.33868433      1.02776351 S
atom       1.54952537      9.11442348      2.59930879 W
atom       3.16901799     10.01761208      4.16113443 S
atom       3.16920445     10.01732465      1.03772355 S
atom       0.00081802     11.89052167      2.59901945 W
atom       1.59141047     12.78748571      4.17657795 S
atom       1.59155479     12.78735553      1.02158198 S
atom       9.49388697      0.92575499      2.59900341 W
atom      11.07485779      1.83846705      4.17613912 S
atom      11.07483111      1.83841363      1.02181819 S
atom       7.89921029      3.67162597      2.59899498 W
atom       9.48914725      4.57485212      4.17652753 S
atom       9.48910101      4.57494059      1.02149351 S
atom       6.32867695      6.44804876      2.59937594 W
atom       7.93822920      7.32353876      4.17366302 S
atom       7.93792567      7.32356154      1.02481869 S
atom       4.78875537      9.11421983      2.59971572 W
atom       6.35190992     10.07043819      4.17372394 S
atom       6.35153299     10.07004306      1.02494456 S
atom       3.16888964     11.86218436      2.59921490 W
atom       4.74618873     12.78750961      4.17660190 S
atom       4.74610554     12.78730561      1.02160996 S
atom      12.65594474      0.92575667      2.59897775 W
atom      14.23766988      1.84324651      4.17634110 S
atom      14.23752664      1.84305026      1.02136068 S
atom      11.07458050      3.66393236      2.59895698 W
atom      12.66000816      4.57489830      4.17637752 S
atom      12.65980674      4.57495594      1.02136903 S
atom       9.50728375      6.40085796      2.59907683 W
atom      11.07420161      7.31897181      4.18079209 S
atom      11.07403891      7.31899534      1.01721705 S
atom       7.92904522      9.14968143      2.59924414 W
atom       9.50007841     10.05669573      4.18148338 S
atom       9.49987913     10.05655799      1.01667494 S
atom       6.33692171     11.89047998      2.59912187 W
atom       7.91555496     12.78841845      4.18078038 S
atom       7.91540840     12.78815579      1.01719133 S
# 
# What follows is the current estimated Hessian matrix constructed by the BFGS algorithm.
# This is NOT the true Hessian matrix of the system.
# If you do not want this information here, switch it off using the "hessian_to_restart_geometry" keyword.
# 
trust_radius             0.0003793754
hessian_file
