# 
# This is the geometry file that corresponds to the current relaxation step.
# If you do not want this file to be written, set the "write_restart_geometry" flag to .false.
#  aims_uuid : 93FB0372-C82D-4EEF-A9D5-5E7DBDBEDB9B                                
# 
  set_vacuum_level         0.690485
lattice_vector     16.35742505      0.00000000      0.00000000
lattice_vector     -8.17073830     14.17072870      0.00000000
lattice_vector      0.00000000      0.00000000    103.34910518
atom      -0.00150801      0.94100588     51.66279767 W
atom       1.63413797      1.88482889     53.33816965 Se
atom       1.63512345      1.88129311     49.98771028 Se
atom      -1.63563468      3.77399425     51.66123655 W
atom       0.00258704      4.72004534     53.33226730 Se
atom       0.00199856      4.71973883     49.98958461 Se
atom      -3.26877997      6.60752468     51.66279159 W
atom      -1.63379558      7.55247517     53.33816718 Se
atom      -1.63635238      7.55513690     49.98772511 Se
atom      -4.90055235      9.44160463     51.66464109 W
atom      -3.26684130     10.38756821     53.34086003 Se
atom      -3.26686097     10.38906668     49.99028431 Se
atom      -6.53698676     12.27967361     51.66460165 W
atom      -4.90110799     13.22189965     53.34082570 Se
atom      -4.89980547     13.22112394     49.99027396 Se
atom       3.26871301      0.93898191     51.66457233 W
atom       4.90708999      1.89055970     53.33425320 Se
atom       4.90705666      1.88463345     49.99327960 Se
atom       1.64227794      3.77053970     51.66016704 W
atom       3.26919083      4.71809746     53.34157078 Se
atom       3.26957045      4.70495372     49.97179414 Se
atom       0.00198127      6.61541822     51.66019117 W
atom       1.63585543      7.55090199     53.34161175 Se
atom       1.62464625      7.55785719     49.97180804 Se
atom      -1.63382223      9.44158942     51.66460668 W
atom       0.00926236     10.38501814     53.33426508 Se
atom       0.00413375     10.38794423     49.99332499 Se
atom      -3.26557735     12.27697483     51.66610491 W
atom      -1.62938815     13.22191311     53.34080791 Se
atom      -1.63071577     13.22111719     49.99025094 Se
atom       6.54476249      0.93899268     51.66454889 W
atom       8.18000626      1.88485758     53.33812733 Se
atom       8.17899278      1.88128088     49.98766706 Se
atom       4.90834294      3.78382906     51.66009661 W
atom       6.54814788      4.71819894     53.34153720 Se
atom       6.54768256      4.70501211     49.97176304 Se
atom       3.22940721      6.58281290     51.64845890 W
atom       4.91024024      7.55351620     53.23374610 Se
atom       4.91050837      7.55349246     55.47879763 Se
atom       4.91020462      7.55352107     50.01845838 Se
atom       1.64814853      9.43815842     51.66014330 W
atom       3.27694736     10.39154357     53.34157419 Se
atom       3.26531739     10.39774136     49.97179957 Se
atom       0.00580850     12.27966058     51.66456293 W
atom       1.64234043     13.22332459     53.33814614 Se
atom       1.63874858     13.22420542     49.98768620 Se
atom       9.81498488      0.94100825     51.66275908 W
atom      11.45089162      1.88576492     53.33683313 Se
atom      11.44993886      1.88521358     49.98682078 Se
atom       8.17432880      3.77055589     51.66011822 W
atom       9.81470576      4.72006672     53.33222219 Se
atom       9.81529953      4.71974667     49.98956749 Se
atom       6.59037091      6.58288896     51.64841325 W
atom       8.18463204      7.55088805     53.34158701 Se
atom       8.19584629      7.55791657     49.97177747 Se
atom       4.91158086      9.49450625     51.64846289 W
atom       6.54679877     10.39155280     53.34159994 Se
atom       6.55842340     10.39779010     49.97181229 Se
atom       3.27115695     12.27427149     51.66013669 W
atom       4.91342500     13.22049755     53.33224437 Se
atom       4.91343554     13.22116159     49.98957104 Se
atom      13.08543417      0.94155168     51.66122476 W
atom      14.72062518      1.88575203     53.33684718 Se
atom      14.72162099      1.88520559     49.98684331 Se
atom      11.45227869      3.77399648     51.66120792 W
atom      13.08734479      4.71839038     53.33685375 Se
atom      13.08737151      4.71953353     49.98684212 Se
atom       9.81784974      6.61544989     51.66012566 W
atom      11.45426682      7.55246752     53.33816837 Se
atom      11.45688659      7.55517648     49.98772766 Se
atom       8.17490863      9.43818976     51.66014154 W
atom       9.81444448     10.38501918     53.33430835 Se
atom       9.81958655     10.38797435     49.99336605 Se
atom       6.55504362     12.27428702     51.66018785 W
atom       8.18454604     13.22329996     53.33817033 Se
atom       8.18813445     13.22420112     49.98771637 Se
# 
# What follows is the current estimated Hessian matrix constructed by the BFGS algorithm.
# This is NOT the true Hessian matrix of the system.
# If you do not want this information here, switch it off using the "hessian_to_restart_geometry" keyword.
# 
