# 
# This is the geometry file that corresponds to the current relaxation step.
# If you do not want this file to be written, set the "write_restart_geometry" flag to .false.
#  aims_uuid : 7F2ABEE2-104F-4F80-A26B-751B852363D0                                
# 
  set_vacuum_level        52.251993
lattice_vector     15.76960250      0.00000000      0.00000000
lattice_vector     -7.88732950     13.65525595      0.00000000
lattice_vector      0.00000000      0.00000000     99.30554027
atom       0.00876871      0.93419796      2.60306730 Mo
atom       1.59402286      1.84682669      4.16097437 S
atom       1.58443495      1.82539103      1.03365710 S
atom      -1.54929286      3.68104323      2.59900695 Mo
atom       0.04373112      4.59217567      4.16275126 S
atom       0.03597671      4.60491373      1.03474431 S
atom      -3.15021177      6.40305737      2.59523426 Mo
atom      -1.59029820      7.32181193      4.16437227 S
atom      -1.56785368      7.31972789      1.03696684 S
atom      -4.71612556      9.13862064      2.59925869 Mo
atom      -3.14442604     10.05022673      4.17195694 S
atom      -3.14499164     10.04913735      1.02651580 S
atom      -6.29141945     11.86602799      2.59920570 Mo
atom      -4.71721809     12.77148908      4.17183482 S
atom      -4.71606165     12.77121411      1.02637986 S
atom       3.17040066      0.92771895      2.59890794 Mo
atom       4.75602078      1.82577436      4.16407364 S
atom       4.74680479      1.84613395      1.03663461 S
atom       1.62632300      3.66811021      2.57571595 Mo
atom       3.20009151      4.54450797      4.16549311 S
atom       3.14016553      4.54186005      1.02954543 S
atom       0.02624001      6.43738199      2.62151254 Mo
atom       1.54068673      7.31084203      4.16764424 S
atom       1.57083335      7.36224020      1.03135264 S
atom      -1.57560559      9.14400173      2.59927368 Mo
atom       0.00791218     10.04977767      4.16164660 S
atom      -0.00499958     10.06802013      1.03415000 S
atom      -3.14173912     11.86608289      2.59918084 Mo
atom      -1.56598304     12.77763606      4.17194028 S
atom      -1.56430564     12.77475164      1.02641533 S
atom       6.33192391      0.93415543      2.59509452 Mo
atom       7.89953499      1.85732797      4.16671049 S
atom       7.90307502      1.85789642      1.02780713 S
atom       4.71394938      3.66777672      2.62122289 Mo
atom       6.30338015      4.60428191      4.16323778 S
atom       6.29631521      4.59188746      1.03501492 S
atom       4.76787532      7.36216216      4.16858011 S
atom       4.79593034      7.30912047      1.03269983 S
atom       1.56933913      9.11075770      2.57718024 Mo
atom       3.16105530     10.01882047      4.16382544 S
atom       3.17584396     10.01839808      1.03574406 S
atom       0.01031222     11.87833108      2.60325076 Mo
atom       1.59600307     12.77689826      4.17061884 S
atom       1.59395829     12.77405168      1.03181703 S
atom       9.48010545      0.94418589      2.59922527 Mo
atom      11.05499893      1.85337384      4.16991982 S
atom      11.05498707      1.85334118      1.02851889 S
atom       7.88901956      3.68081658      2.59917598 Mo
atom       9.47454438      4.58038676      4.17057358 S
atom       9.47334938      4.58373561      1.03169954 S
atom       6.31217094      6.43668235      2.57697838 Mo
atom       7.90597623      7.31930304      4.16167243 S
atom       7.92838411      7.32156578      1.03429067 S
atom       4.76760853      9.11022095      2.62270665 Mo
atom       6.34237272     10.06805212      4.16475755 S
atom       6.32857502     10.04906160      1.03741700 S
atom       3.16815831     11.85351096      2.59947575 Mo
atom       4.74238895     12.77423801      4.16684014 S
atom       4.74006749     12.77670704      1.02803968 S
atom      12.63004353      0.94424028      2.59922103 Mo
atom      14.20714182      1.85812975      4.17044298 S
atom      14.21043019      1.85740174      1.03157400 S
atom      11.05460726      3.67182643      2.59921250 Mo
atom      12.63584007      4.58376424      4.16668351 S
atom      12.63444755      4.58059561      1.02782097 S
atom       9.48863936      6.40288682      2.60330610 Mo
atom      11.05553054      7.31822443      4.17203214 S
atom      11.05228541      7.31823223      1.02649458 S
atom       7.91289795      9.14373161      2.59946906 Mo
atom       9.48221832     10.04913501      4.17202198 S
atom       9.48145432     10.05000575      1.02657934 S
atom       6.32601599     11.87820212      2.59535394 Mo
atom       7.90070527     12.77492613      4.17196950 S
atom       7.90211349     12.77738055      1.02644713 S
# 
# What follows is the current estimated Hessian matrix constructed by the BFGS algorithm.
# This is NOT the true Hessian matrix of the system.
# If you do not want this information here, switch it off using the "hessian_to_restart_geometry" keyword.
# 
trust_radius             0.0004075142
hessian_file
