# 
# This is the geometry file that corresponds to the current relaxation step.
# If you do not want this file to be written, set the "write_restart_geometry" flag to .false.
#  aims_uuid : 0EFBFB90-7EE2-4CB3-AEE0-450449346761                                
# 
  set_vacuum_level        52.251993
lattice_vector     15.76960250      0.00000000      0.00000000
lattice_vector     -7.88732950     13.65525595      0.00000000
lattice_vector      0.00000000      0.00000000     99.30554027
atom       0.00876333      0.93417711      2.60304972 Mo
atom       1.59399737      1.84685148      4.16088023 S
atom       1.58436701      1.82531294      1.03364864 S
atom      -1.54919330      3.68095947      2.59896391 Mo
atom       0.04379178      4.59210465      4.16266148 S
atom       0.03597109      4.60488346      1.03469359 S
atom      -3.15021008      6.40305711      2.59521582 Mo
atom      -1.59032375      7.32178852      4.16433814 S
atom      -1.56787351      7.31973554      1.03695264 S
atom      -4.71618209      9.13866349      2.59926870 Mo
atom      -3.14449085     10.05026823      4.17195933 S
atom      -3.14506693     10.04916688      1.02651613 S
atom      -6.29145756     11.86603909      2.59920823 Mo
atom      -4.71729722     12.77149884      4.17182909 S
atom      -4.71614452     12.77118348      1.02635338 S
atom       3.17033540      0.92765921      2.59886343 Mo
atom       4.75594121      1.82571544      4.16400827 S
atom       4.74672613      1.84607732      1.03660642 S
atom       1.62628327      3.66803379      2.57557636 Mo
atom       3.20002788      4.54463889      4.16522731 S
atom       3.14004803      4.54180440      1.02950116 S
atom       0.02621263      6.43731768      2.62150079 Mo
atom       1.54071191      7.31075901      4.16756905 S
atom       1.57090000      7.36224843      1.03141455 S
atom      -1.57565981      9.14402809      2.59927327 Mo
atom       0.00788867     10.04979203      4.16163528 S
atom      -0.00500061     10.06805625      1.03420434 S
atom      -3.14179640     11.86610533      2.59917363 Mo
atom      -1.56604376     12.77763097      4.17192623 S
atom      -1.56436411     12.77474915      1.02641771 S
atom       6.33189301      0.93412851      2.59506766 Mo
atom       7.89954770      1.85729457      4.16664470 S
atom       7.90311234      1.85786704      1.02786029 S
atom       4.71387906      3.66763766      2.62120444 Mo
atom       6.30334674      4.60428864      4.16320068 S
atom       6.29629482      4.59192181      1.03505296 S
atom       4.76788199      7.36228930      4.16864376 S
atom       4.79578490      7.30910054      1.03295781 S
atom       1.56941220      9.11080841      2.57718075 Mo
atom       3.16108016     10.01884845      4.16387569 S
atom       3.17594147     10.01839141      1.03582583 S
atom       0.01032516     11.87836412      2.60326803 Mo
atom       1.59604681     12.77688109      4.17061338 S
atom       1.59402336     12.77400763      1.03186014 S
atom       9.48018329      0.94410138      2.59922880 Mo
atom      11.05506515      1.85333952      4.16986852 S
atom      11.05504818      1.85329696      1.02856903 S
atom       7.88903249      3.68080920      2.59917429 Mo
atom       9.47459145      4.58037366      4.17052857 S
atom       9.47338759      4.58374720      1.03175604 S
atom       6.31225902      6.43683048      2.57700113 Mo
atom       7.90598488      7.31939792      4.16172751 S
atom       7.92839149      7.32166545      1.03433204 S
atom       4.76763819      9.11027997      2.62284772 Mo
atom       6.34240146     10.06814222      4.16477525 S
atom       6.32853980     10.04906579      1.03750540 S
atom       3.16827567     11.85349839      2.59951780 Mo
atom       4.74246251     12.77424722      4.16685033 S
atom       4.74012599     12.77668242      1.02807479 S
atom      12.63012562      0.94416267      2.59922077 Mo
atom      14.20717409      1.85809691      4.17038612 S
atom      14.21044264      1.85733607      1.03158507 S
atom      11.05470430      3.67179666      2.59920677 Mo
atom      12.63590642      4.58372633      4.16661795 S
atom      12.63447966      4.58056268      1.02784453 S
atom       9.48863725      6.40294764      2.60333245 Mo
atom      11.05551496      7.31826386      4.17202326 S
atom      11.05226841      7.31827924      1.02651746 S
atom       7.91292645      9.14381860      2.59951578 Mo
atom       9.48220649     10.04921475      4.17206071 S
atom       9.48140906     10.05006399      1.02658229 S
atom       6.32603929     11.87821618      2.59537385 Mo
atom       7.90071714     12.77497514      4.17194941 S
atom       7.90208557     12.77735748      1.02647082 S
# 
# What follows is the current estimated Hessian matrix constructed by the BFGS algorithm.
# This is NOT the true Hessian matrix of the system.
# If you do not want this information here, switch it off using the "hessian_to_restart_geometry" keyword.
# 
trust_radius             0.0003953202
hessian_file
