# 
# This is the geometry file that corresponds to the current relaxation step.
# If you do not want this file to be written, set the "write_restart_geometry" flag to .false.
#  aims_uuid : 9C6596FD-0A8F-463F-A39C-9FDF3DE70EFB                                
# 
  set_vacuum_level        52.569430
lattice_vector     15.80931190      0.00000000      0.00000000
lattice_vector     -7.90633915     13.69010115      0.00000000
lattice_vector      0.00000000      0.00000000     99.93885963
atom       0.02488476      0.95341249      2.60000000 W
atom       1.60576091      1.86606636      4.17728090 S
atom       1.60576091      1.86606636      1.02271910 S
atom      -1.55636316      3.69145932      2.60000000 W
atom       0.02449773      4.60408288      4.17731128 S
atom       0.02449773      4.60408288      1.02268872 S
atom      -3.13763060      6.42949389      2.60000000 W
atom      -1.55676131      7.34211587      4.17731673 S
atom      -1.55676131      7.34211587      1.02268327 S
atom      -4.71889242      9.16750569      2.60000000 W
atom      -3.13803441     10.08012656      4.17732434 S
atom      -3.13803441     10.08012656      1.02267566 S
atom      -6.30017487     11.90551959      2.60000000 W
atom      -4.71929981     12.81815069      4.17729725 S
atom      -4.71929981     12.81815069      1.02270275 S
atom       3.18678208      0.95342784      2.60000000 W
atom       4.76763397      1.86606635      4.17731192 S
atom       4.76763397      1.86606635      1.02268808 S
atom       1.60549499      3.69146917      2.60000000 W
atom       3.18636883      4.60408561      4.17729860 S
atom       3.18636883      4.60408561      1.02270140 S
atom       0.02422553      6.42946824      2.60000000 W
atom       1.60509268      7.34209782      4.17730731 S
atom       1.60509268      7.34209782      1.02269269 S
atom      -1.55703822      9.16748949      2.60000000 W
atom       0.02382758     10.08012492      4.17730742 S
atom       0.02382758     10.08012492      1.02269258 S
atom      -3.13829778     11.90551389      2.60000000 W
atom      -1.55744993     12.81817403      4.17730782 S
atom      -1.55744993     12.81817403      1.02269218 S
atom       6.34862971      0.95343550      2.60000000 W
atom       7.92949713      1.86606547      4.17729795 S
atom       7.92949713      1.86606547      1.02270205 S
atom       4.76735907      3.69144292      2.60000000 W
atom       6.34821559      4.60409784      4.17731113 S
atom       6.34821559      4.60409784      1.02268887 S
atom       3.18611765      6.42948091      2.60000000 W
atom       4.76695326      7.34212150      4.17731988 S
atom       4.76695326      7.34212150      1.02268012 S
atom       1.60481125      9.16749248      2.60000000 W
atom       3.18568100     10.08014028      4.17730183 S
atom       3.18568100     10.08014028      1.02269817 S
atom       0.02355185     11.90551325      2.60000000 W
atom       1.60440670     12.81815177      4.17729395 S
atom       1.60440670     12.81815177      1.02270605 S
atom       9.51049568      0.95344236      2.60000000 W
atom      11.09136435      1.86607276      4.17730955 S
atom      11.09136435      1.86607276      1.02269045 S
atom       7.92921726      3.69146078      2.60000000 W
atom       9.51008266      4.60408835      4.17730736 S
atom       9.51008266      4.60408835      1.02269264 S
atom       6.34795424      6.42947820      2.60000000 W
atom       7.92882087      7.34210097      4.17732529 S
atom       7.92882087      7.34210097      1.02267471 S
atom       4.76668702      9.16750365      2.60000000 W
atom       6.34756032     10.08014281      4.17732213 S
atom       6.34756032     10.08014281      1.02267787 S
atom       3.18543283     11.90554475      2.60000000 W
atom       4.76628599     12.81816418      4.17734445 S
atom       4.76628599     12.81816418      1.02265555 S
atom      12.67234996      0.95341676      2.60000000 W
atom      14.25320237      1.86607674      4.17731063 S
atom      14.25320237      1.86607674      1.02268937 S
atom      11.09108101      3.69144836      2.60000000 W
atom      12.67193988      4.60409512      4.17729604 S
atom      12.67193988      4.60409512      1.02270396 S
atom       9.50979937      6.42947119      2.60000000 W
atom      11.09067428      7.34211688      4.17730600 S
atom      11.09067428      7.34211688      1.02269400 S
atom       7.92854431      9.16747960      2.60000000 W
atom       9.50939909     10.08012508      4.17730866 S
atom       9.50939909     10.08012508      1.02269134 S
atom       6.34725877     11.90552810      2.60000000 W
atom       7.92814015     12.81814177      4.17731850 S
atom       7.92814015     12.81814177      1.02268150 S
# 
# What follows is the current estimated Hessian matrix constructed by the BFGS algorithm.
# This is NOT the true Hessian matrix of the system.
# If you do not want this information here, switch it off using the "hessian_to_restart_geometry" keyword.
# 
trust_radius             0.0002147386
hessian_file
