# 
# This is the geometry file that corresponds to the current relaxation step.
# If you do not want this file to be written, set the "write_restart_geometry" flag to .false.
#  aims_uuid : F6584358-7A96-4D0D-A68B-7182D961A7CA                                
# 
  set_vacuum_level         0.002315
lattice_vector     15.72847685      0.00000000      0.00000000
lattice_vector     -7.86461685     13.62035640      0.00000000
lattice_vector      0.00000000      0.00000000    103.13570646
atom       0.00109613      0.90670079     51.59679565 W
atom       1.58560798      1.83136133     53.15290625 S
atom       1.56585224      1.82092066     50.02130046 S
atom      -1.56981366      3.63325480     51.60281892 W
atom       0.01805919      4.54995825     53.15849276 S
atom      -0.00556890      4.53625710     50.02385353 S
atom      -3.14587151      6.35684349     51.59675098 W
atom      -1.55276150      7.26661205     53.15284221 S
atom      -1.57167671      7.25470498     50.02122256 S
atom      -4.72580386      9.07566867     51.57897432 W
atom      -3.14595585      9.98473181     53.14402130 S
atom      -3.14595369      9.98389176     50.01491429 S
atom      -6.29863088     11.79954113     51.57899027 W
atom      -4.72135818     12.71303878     53.14405493 S
atom      -4.72209515     12.71350679     50.01494242 S
atom       3.14577092      0.91537633     51.57904076 W
atom       4.71850465      1.84985516     53.12975133 S
atom       4.71850284      1.81359581     50.00230589 S
atom       1.58159907      3.64882001     51.57944703 W
atom       3.19524216      4.62102262     53.10337881 S
atom       3.13104658      4.55681066     49.97116569 S
atom       0.01932122      6.35450250     51.57938742 W
atom       1.66816126      7.26569909     53.10331029 S
atom       1.58053082      7.24216324     49.97110945 S
atom      -1.56607914      9.07567280     51.57897685 W
atom       0.02966843      9.97030312     53.12967455 S
atom      -0.00174037      9.98845279     50.00224076 S
atom      -3.14601838     11.80366149     51.57929963 W
atom      -1.57070718     12.71304294     53.14405372 S
atom      -1.56996293     12.71350558     50.01494770 S
atom       6.29127327      0.91538409     51.57903830 W
atom       7.85140756      1.83135476     53.15290571 S
atom       7.87116169      1.82091957     50.02129110 S
atom       4.71845212      3.66168638     51.53969615 W
atom       6.24161571      4.62100699     53.10339040 S
atom       6.30580330      4.55682014     49.97116770 S
atom       3.21317237      6.39452268     51.49005650 W
atom       4.71835779      7.26343720     49.87240054 S
atom       1.59887324      9.06443173     51.53961285 W
atom       3.19132127      9.90374519     53.10330673 S
atom       3.16783102      9.99142965     49.97107437 S
atom       0.00660859     11.79954909     51.57900069 W
atom       1.58001890     12.69251537     53.15286456 S
atom       1.58083708     12.71488046     50.02125214 S
atom       9.43594315      0.90669526     51.59679386 W
atom      11.00532920      1.81272412     53.16962645 S
atom      11.01228180      1.81674159     50.03653151 S
atom       7.85527860      3.64880783     51.57944624 W
atom       9.41879109      4.54995151     53.15849421 S
atom       9.44241814      4.53625350     50.02386148 S
atom       6.22355196      6.39450911     51.49007399 W
atom       7.76853841      7.26569844     53.10331679 S
atom       7.85616409      7.24215529     49.97112137 S
atom       4.71829132      9.00147030     51.48999702 W
atom       6.24524527      9.90372126     53.10330395 S
atom       6.26873665      9.99143468     49.97107662 S
atom       3.15604180     11.78725439     51.57937545 W
atom       4.71820224     12.69064609     53.15846382 S
atom       4.71821075     12.71796551     50.02381837 S
atom      12.58275861      0.90375049     51.60281540 W
atom      14.16015702      1.81272600     53.16962698 S
atom      14.15320859      1.81674055     50.03652824 S
atom      11.00669739      3.63325642     51.60282003 W
atom      12.58266629      4.54474771     53.16960977 S
atom      12.58266715      4.53667128     50.03651619 S
atom       9.41741107      6.35450447     51.57938461 W
atom      10.98947055      7.26660772     53.15284297 S
atom      11.00838367      7.25469855     50.02122151 S
atom       7.83773527      9.06442966     51.53961084 W
atom       9.40690182      9.97030121     53.12967559 S
atom       9.43831016      9.98844748     50.00223026 S
atom       6.28040075     11.78725281     51.57939192 W
atom       7.85640514     12.69251144     53.15286137 S
atom       7.85557187     12.71487986     50.02125913 S
# 
# What follows is the current estimated Hessian matrix constructed by the BFGS algorithm.
# This is NOT the true Hessian matrix of the system.
# If you do not want this information here, switch it off using the "hessian_to_restart_geometry" keyword.
# 
