# 
# This is the geometry file that corresponds to the current relaxation step.
# If you do not want this file to be written, set the "write_restart_geometry" flag to .false.
#  aims_uuid : 4693814F-FBEE-4EAF-A838-EC223E3342EF                                
# 
  set_vacuum_level        53.505960
lattice_vector     15.80931190      0.00000000      0.00000000
lattice_vector     -7.90633915     13.69010115      0.00000000
lattice_vector      0.00000000      0.00000000     99.93885963
atom       0.02493762      0.95316132      2.59903768 W
atom       1.60680455      1.86638712      4.17457580 S
atom       1.60616810      1.86599937      1.02220602 S
atom      -1.55618853      3.69068323      2.60065036 W
atom       0.02446254      4.60295006      4.17836544 S
atom       0.02169363      4.60564631      1.02293353 S
atom      -3.13631946      6.42907703      2.60245982 W
atom      -1.55662630      7.34162574      4.18140324 S
atom      -1.55662364      7.34316315      1.02561003 S
atom      -4.71837706      9.16846239      2.60248701 W
atom      -3.13815499     10.08011057      4.18141338 S
atom      -3.13686331     10.07934539      1.02561856 S
atom      -6.30055185     11.90564243      2.60071170 W
atom      -4.72005714     12.81830622      4.17834807 S
atom      -4.71915454     12.81452517      1.02297843 S
atom       3.18953911      0.95052319      2.59759479 W
atom       4.76615012      1.86826416      4.17529327 S
atom       4.76585317      1.85229818      1.00940141 S
atom       1.60456332      3.69490520      2.59759399 W
atom       3.18774530      4.60128305      4.17532159 S
atom       3.17377898      4.60908090      1.00944462 S
atom       0.02320510      6.42902785      2.60245788 W
atom       1.60880530      7.33987433      4.17700427 S
atom       1.60314815      7.34318136      1.02537820 S
atom      -1.55688693      9.16732640      2.60415147 W
atom       0.02424377     10.08012659      4.18140309 S
atom       0.02294862     10.07933751      1.02561396 S
atom      -3.13894959     11.90443045      2.60246706 W
atom      -1.55729061     12.82211237      4.17696319 S
atom      -1.55731222     12.81549984      1.02533394 S
atom       6.34877763      0.95666427      2.59659241 W
atom       7.93130730      1.86825549      4.17523632 S
atom       7.93155827      1.85226691      1.00935682 S
atom       4.74017802      3.67549545      2.58450996 W
atom       6.34841218      4.60383333      4.11760377 S
atom       6.34851531      4.60358875      6.06474628 S
atom       6.34835896      4.60392181      1.03838979 S
atom       3.18921985      6.42760080      2.59667605 W
atom       4.76999911      7.34216048      4.17534907 S
atom       4.75628568      7.35040016      1.00946935 S
atom       1.60460575      9.16845265      2.60248803 W
atom       3.18657618     10.08060286      4.17836746 S
atom       3.18287790     10.08164040      1.02299038 S
atom       0.02449690     11.90443339      2.60244446 W
atom       1.60547486     12.81832006      4.17830747 S
atom       1.60456189     12.81450973      1.02293261 S
atom       9.50804060      0.95051969      2.59753441 W
atom      11.09061529      1.86640089      4.17452276 S
atom      11.09128297      1.86602361      1.02213564 S
atom       7.95672936      3.67548593      2.58444386 W
atom       9.50900953      4.60127710      4.17525599 S
atom       9.52299212      4.60908417      1.00936808 S
atom       6.34810226      6.46082260      2.58454962 W
atom       7.92609924      7.34213390      4.17533745 S
atom       7.93977498      7.35039820      1.00945328 S
atom       4.76318270      9.16642497      2.59764761 W
atom       6.34771257     10.07893974      4.17462208 S
atom       6.34771420     10.07965573      1.02223728 S
atom       3.18610947     11.90564684      2.60067710 W
atom       4.76719659     12.81843935      4.17714262 S
atom       4.76621868     12.81781899      1.02207797 S
atom      12.67262155      0.95318375      2.59899421 W
atom      14.25334791      1.86500828      4.17712663 S
atom      14.25337101      1.86613702      1.02207916 S
atom      11.09228736      3.69489556      2.59754438 W
atom      12.67224495      4.60295484      4.17830660 S
atom      12.67504508      4.60566609      1.02294056 S
atom       9.50700636      6.42758595      2.59662621 W
atom      11.08725118      7.33986568      4.17698135 S
atom      11.09294494      7.34318885      1.02536120 S
atom       7.93238026      9.16641041      2.59764512 W
atom       9.50882850     10.08058585      4.17838315 S
atom       9.51252805     10.08166032      1.02299603 S
atom       6.34743120     11.90545920      2.59904745 W
atom       7.92751204     12.81842088      4.17716900 S
atom       7.92852211     12.81782042      1.02211114 S
# 
# What follows is the current estimated Hessian matrix constructed by the BFGS algorithm.
# This is NOT the true Hessian matrix of the system.
# If you do not want this information here, switch it off using the "hessian_to_restart_geometry" keyword.
# 
trust_radius             0.0002162337
hessian_file
