# 
# This is the geometry file that corresponds to the current relaxation step.
# If you do not want this file to be written, set the "write_restart_geometry" flag to .false.
#  aims_uuid : E1C9B054-CE16-434F-AAE5-7183847D333C                                
# 
  set_vacuum_level         2.885163
lattice_vector     26.37921681      0.00000000      0.00000000
lattice_vector     13.18960841     22.84507189      0.00000000
lattice_vector      0.00000000      0.00000000    107.15341248
atom_frac       0.00000000      0.00000000      0.46662070 Au
  constrain_relaxation .true.
atom_frac       0.11111111      0.00000000      0.46662070 Au
  constrain_relaxation .true.
atom_frac       0.22222222      0.00000000      0.46662070 Au
  constrain_relaxation .true.
atom_frac       0.33333333      0.00000000      0.46662070 Au
  constrain_relaxation .true.
atom_frac       0.44444444      0.00000000      0.46662070 Au
  constrain_relaxation .true.
atom_frac       0.55555556      0.00000000      0.46662070 Au
  constrain_relaxation .true.
atom_frac       0.66666667      0.00000000      0.46662070 Au
  constrain_relaxation .true.
atom_frac       0.77777778      0.00000000      0.46662070 Au
  constrain_relaxation .true.
atom_frac       0.88888889      0.00000000      0.46662070 Au
  constrain_relaxation .true.
atom_frac       0.00000000      0.11111111      0.46662070 Au
  constrain_relaxation .true.
atom_frac       0.11111111      0.11111111      0.46662070 Au
  constrain_relaxation .true.
atom_frac       0.22222222      0.11111111      0.46662070 Au
  constrain_relaxation .true.
atom_frac       0.33333333      0.11111111      0.46662070 Au
  constrain_relaxation .true.
atom_frac       0.44444444      0.11111111      0.46662070 Au
  constrain_relaxation .true.
atom_frac       0.55555556      0.11111111      0.46662070 Au
  constrain_relaxation .true.
atom_frac       0.66666667      0.11111111      0.46662070 Au
  constrain_relaxation .true.
atom_frac       0.77777778      0.11111111      0.46662070 Au
  constrain_relaxation .true.
atom_frac       0.88888889      0.11111111      0.46662070 Au
  constrain_relaxation .true.
atom_frac       0.00000000      0.22222222      0.46662070 Au
  constrain_relaxation .true.
atom_frac       0.11111111      0.22222222      0.46662070 Au
  constrain_relaxation .true.
atom_frac       0.22222222      0.22222222      0.46662070 Au
  constrain_relaxation .true.
atom_frac       0.33333333      0.22222222      0.46662070 Au
  constrain_relaxation .true.
atom_frac       0.44444444      0.22222222      0.46662070 Au
  constrain_relaxation .true.
atom_frac       0.55555556      0.22222222      0.46662070 Au
  constrain_relaxation .true.
atom_frac       0.66666667      0.22222222      0.46662070 Au
  constrain_relaxation .true.
atom_frac       0.77777778      0.22222222      0.46662070 Au
  constrain_relaxation .true.
atom_frac       0.88888889      0.22222222      0.46662070 Au
  constrain_relaxation .true.
atom_frac       0.00000000      0.33333333      0.46662070 Au
  constrain_relaxation .true.
atom_frac       0.11111111      0.33333333      0.46662070 Au
  constrain_relaxation .true.
atom_frac       0.22222222      0.33333333      0.46662070 Au
  constrain_relaxation .true.
atom_frac       0.33333333      0.33333333      0.46662070 Au
  constrain_relaxation .true.
atom_frac       0.44444444      0.33333333      0.46662070 Au
  constrain_relaxation .true.
atom_frac       0.55555556      0.33333333      0.46662070 Au
  constrain_relaxation .true.
atom_frac       0.66666667      0.33333333      0.46662070 Au
  constrain_relaxation .true.
atom_frac       0.77777778      0.33333333      0.46662070 Au
  constrain_relaxation .true.
atom_frac       0.88888889      0.33333333      0.46662070 Au
  constrain_relaxation .true.
atom_frac       0.00000000      0.44444444      0.46662070 Au
  constrain_relaxation .true.
atom_frac       0.11111111      0.44444444      0.46662070 Au
  constrain_relaxation .true.
atom_frac       0.22222222      0.44444444      0.46662070 Au
  constrain_relaxation .true.
atom_frac       0.33333333      0.44444444      0.46662070 Au
  constrain_relaxation .true.
atom_frac       0.44444444      0.44444444      0.46662070 Au
  constrain_relaxation .true.
atom_frac       0.55555556      0.44444444      0.46662070 Au
  constrain_relaxation .true.
atom_frac       0.66666667      0.44444444      0.46662070 Au
  constrain_relaxation .true.
atom_frac       0.77777778      0.44444444      0.46662070 Au
  constrain_relaxation .true.
atom_frac       0.88888889      0.44444444      0.46662070 Au
  constrain_relaxation .true.
atom_frac       0.00000000      0.55555556      0.46662070 Au
  constrain_relaxation .true.
atom_frac       0.11111111      0.55555556      0.46662070 Au
  constrain_relaxation .true.
atom_frac       0.22222222      0.55555556      0.46662070 Au
  constrain_relaxation .true.
atom_frac       0.33333333      0.55555556      0.46662070 Au
  constrain_relaxation .true.
atom_frac       0.44444444      0.55555556      0.46662070 Au
  constrain_relaxation .true.
atom_frac       0.55555556      0.55555556      0.46662070 Au
  constrain_relaxation .true.
atom_frac       0.66666667      0.55555556      0.46662070 Au
  constrain_relaxation .true.
atom_frac       0.77777778      0.55555556      0.46662070 Au
  constrain_relaxation .true.
atom_frac       0.88888889      0.55555556      0.46662070 Au
  constrain_relaxation .true.
atom_frac       0.00000000      0.66666667      0.46662070 Au
  constrain_relaxation .true.
atom_frac       0.11111111      0.66666667      0.46662070 Au
  constrain_relaxation .true.
atom_frac       0.22222222      0.66666667      0.46662070 Au
  constrain_relaxation .true.
atom_frac       0.33333333      0.66666667      0.46662070 Au
  constrain_relaxation .true.
atom_frac       0.44444444      0.66666667      0.46662070 Au
  constrain_relaxation .true.
atom_frac       0.55555556      0.66666667      0.46662070 Au
  constrain_relaxation .true.
atom_frac       0.66666667      0.66666667      0.46662070 Au
  constrain_relaxation .true.
atom_frac       0.77777778      0.66666667      0.46662070 Au
  constrain_relaxation .true.
atom_frac       0.88888889      0.66666667      0.46662070 Au
  constrain_relaxation .true.
atom_frac       0.00000000      0.77777778      0.46662070 Au
  constrain_relaxation .true.
atom_frac       0.11111111      0.77777778      0.46662070 Au
  constrain_relaxation .true.
atom_frac       0.22222222      0.77777778      0.46662070 Au
  constrain_relaxation .true.
atom_frac       0.33333333      0.77777778      0.46662070 Au
  constrain_relaxation .true.
atom_frac       0.44444444      0.77777778      0.46662070 Au
  constrain_relaxation .true.
atom_frac       0.55555556      0.77777778      0.46662070 Au
  constrain_relaxation .true.
atom_frac       0.66666667      0.77777778      0.46662070 Au
  constrain_relaxation .true.
atom_frac       0.77777778      0.77777778      0.46662070 Au
  constrain_relaxation .true.
atom_frac       0.88888889      0.77777778      0.46662070 Au
  constrain_relaxation .true.
atom_frac       0.00000000      0.88888889      0.46662070 Au
  constrain_relaxation .true.
atom_frac       0.11111111      0.88888889      0.46662070 Au
  constrain_relaxation .true.
atom_frac       0.22222222      0.88888889      0.46662070 Au
  constrain_relaxation .true.
atom_frac       0.33333333      0.88888889      0.46662070 Au
  constrain_relaxation .true.
atom_frac       0.44444444      0.88888889      0.46662070 Au
  constrain_relaxation .true.
atom_frac       0.55555556      0.88888889      0.46662070 Au
  constrain_relaxation .true.
atom_frac       0.66666667      0.88888889      0.46662070 Au
  constrain_relaxation .true.
atom_frac       0.77777778      0.88888889      0.46662070 Au
  constrain_relaxation .true.
atom_frac       0.88888889      0.88888889      0.46662070 Au
  constrain_relaxation .true.
atom_frac       0.03703704      0.03703704      0.48887357 Au
  constrain_relaxation .true.
atom_frac       0.14814815      0.03703704      0.48887357 Au
  constrain_relaxation .true.
atom_frac       0.25925926      0.03703704      0.48887357 Au
  constrain_relaxation .true.
atom_frac       0.37037037      0.03703704      0.48887357 Au
  constrain_relaxation .true.
atom_frac       0.48148148      0.03703704      0.48887357 Au
  constrain_relaxation .true.
atom_frac       0.59259259      0.03703704      0.48887357 Au
  constrain_relaxation .true.
atom_frac       0.70370370      0.03703704      0.48887357 Au
  constrain_relaxation .true.
atom_frac       0.81481481      0.03703704      0.48887357 Au
  constrain_relaxation .true.
atom_frac       0.92592593      0.03703704      0.48887357 Au
  constrain_relaxation .true.
atom_frac       0.03703704      0.14814815      0.48887357 Au
  constrain_relaxation .true.
atom_frac       0.14814815      0.14814815      0.48887357 Au
  constrain_relaxation .true.
atom_frac       0.25925926      0.14814815      0.48887357 Au
  constrain_relaxation .true.
atom_frac       0.37037037      0.14814815      0.48887357 Au
  constrain_relaxation .true.
atom_frac       0.48148148      0.14814815      0.48887357 Au
  constrain_relaxation .true.
atom_frac       0.59259259      0.14814815      0.48887357 Au
  constrain_relaxation .true.
atom_frac       0.70370370      0.14814815      0.48887357 Au
  constrain_relaxation .true.
atom_frac       0.81481481      0.14814815      0.48887357 Au
  constrain_relaxation .true.
atom_frac       0.92592593      0.14814815      0.48887357 Au
  constrain_relaxation .true.
atom_frac       0.03703704      0.25925926      0.48887357 Au
  constrain_relaxation .true.
atom_frac       0.14814815      0.25925926      0.48887357 Au
  constrain_relaxation .true.
atom_frac       0.25925926      0.25925926      0.48887357 Au
  constrain_relaxation .true.
atom_frac       0.37037037      0.25925926      0.48887357 Au
  constrain_relaxation .true.
atom_frac       0.48148148      0.25925926      0.48887357 Au
  constrain_relaxation .true.
atom_frac       0.59259259      0.25925926      0.48887357 Au
  constrain_relaxation .true.
atom_frac       0.70370370      0.25925926      0.48887357 Au
  constrain_relaxation .true.
atom_frac       0.81481481      0.25925926      0.48887357 Au
  constrain_relaxation .true.
atom_frac       0.92592593      0.25925926      0.48887357 Au
  constrain_relaxation .true.
atom_frac       0.03703704      0.37037037      0.48887357 Au
  constrain_relaxation .true.
atom_frac       0.14814815      0.37037037      0.48887357 Au
  constrain_relaxation .true.
atom_frac       0.25925926      0.37037037      0.48887357 Au
  constrain_relaxation .true.
atom_frac       0.37037037      0.37037037      0.48887357 Au
  constrain_relaxation .true.
atom_frac       0.48148148      0.37037037      0.48887357 Au
  constrain_relaxation .true.
atom_frac       0.59259259      0.37037037      0.48887357 Au
  constrain_relaxation .true.
atom_frac       0.70370370      0.37037037      0.48887357 Au
  constrain_relaxation .true.
atom_frac       0.81481481      0.37037037      0.48887357 Au
  constrain_relaxation .true.
atom_frac       0.92592593      0.37037037      0.48887357 Au
  constrain_relaxation .true.
atom_frac       0.03703704      0.48148148      0.48887357 Au
  constrain_relaxation .true.
atom_frac       0.14814815      0.48148148      0.48887357 Au
  constrain_relaxation .true.
atom_frac       0.25925926      0.48148148      0.48887357 Au
  constrain_relaxation .true.
atom_frac       0.37037037      0.48148148      0.48887357 Au
  constrain_relaxation .true.
atom_frac       0.48148148      0.48148148      0.48887357 Au
  constrain_relaxation .true.
atom_frac       0.59259259      0.48148148      0.48887357 Au
  constrain_relaxation .true.
atom_frac       0.70370370      0.48148148      0.48887357 Au
  constrain_relaxation .true.
atom_frac       0.81481481      0.48148148      0.48887357 Au
  constrain_relaxation .true.
atom_frac       0.92592593      0.48148148      0.48887357 Au
  constrain_relaxation .true.
atom_frac       0.03703704      0.59259259      0.48887357 Au
  constrain_relaxation .true.
atom_frac       0.14814815      0.59259259      0.48887357 Au
  constrain_relaxation .true.
atom_frac       0.25925926      0.59259259      0.48887357 Au
  constrain_relaxation .true.
atom_frac       0.37037037      0.59259259      0.48887357 Au
  constrain_relaxation .true.
atom_frac       0.48148148      0.59259259      0.48887357 Au
  constrain_relaxation .true.
atom_frac       0.59259259      0.59259259      0.48887357 Au
  constrain_relaxation .true.
atom_frac       0.70370370      0.59259259      0.48887357 Au
  constrain_relaxation .true.
atom_frac       0.81481481      0.59259259      0.48887357 Au
  constrain_relaxation .true.
atom_frac       0.92592593      0.59259259      0.48887357 Au
  constrain_relaxation .true.
atom_frac       0.03703704      0.70370370      0.48887357 Au
  constrain_relaxation .true.
atom_frac       0.14814815      0.70370370      0.48887357 Au
  constrain_relaxation .true.
atom_frac       0.25925926      0.70370370      0.48887357 Au
  constrain_relaxation .true.
atom_frac       0.37037037      0.70370370      0.48887357 Au
  constrain_relaxation .true.
atom_frac       0.48148148      0.70370370      0.48887357 Au
  constrain_relaxation .true.
atom_frac       0.59259259      0.70370370      0.48887357 Au
  constrain_relaxation .true.
atom_frac       0.70370370      0.70370370      0.48887357 Au
  constrain_relaxation .true.
atom_frac       0.81481481      0.70370370      0.48887357 Au
  constrain_relaxation .true.
atom_frac       0.92592593      0.70370370      0.48887357 Au
  constrain_relaxation .true.
atom_frac       0.03703704      0.81481481      0.48887357 Au
  constrain_relaxation .true.
atom_frac       0.14814815      0.81481481      0.48887357 Au
  constrain_relaxation .true.
atom_frac       0.25925926      0.81481481      0.48887357 Au
  constrain_relaxation .true.
atom_frac       0.37037037      0.81481481      0.48887357 Au
  constrain_relaxation .true.
atom_frac       0.48148148      0.81481481      0.48887357 Au
  constrain_relaxation .true.
atom_frac       0.59259259      0.81481481      0.48887357 Au
  constrain_relaxation .true.
atom_frac       0.70370370      0.81481481      0.48887357 Au
  constrain_relaxation .true.
atom_frac       0.81481481      0.81481481      0.48887357 Au
  constrain_relaxation .true.
atom_frac       0.92592593      0.81481481      0.48887357 Au
  constrain_relaxation .true.
atom_frac       0.03703704      0.92592593      0.48887357 Au
  constrain_relaxation .true.
atom_frac       0.14814815      0.92592593      0.48887357 Au
  constrain_relaxation .true.
atom_frac       0.25925926      0.92592593      0.48887357 Au
  constrain_relaxation .true.
atom_frac       0.37037037      0.92592593      0.48887357 Au
  constrain_relaxation .true.
atom_frac       0.48148148      0.92592593      0.48887357 Au
  constrain_relaxation .true.
atom_frac       0.59259259      0.92592593      0.48887357 Au
  constrain_relaxation .true.
atom_frac       0.70370370      0.92592593      0.48887357 Au
  constrain_relaxation .true.
atom_frac       0.81481481      0.92592593      0.48887357 Au
  constrain_relaxation .true.
atom_frac       0.92592593      0.92592593      0.48887357 Au
  constrain_relaxation .true.
atom_frac       0.96300840      0.07430518      0.51051013 Au
  constrain_relaxation .true.
atom_frac       0.07437195      0.07415830      0.51057570 Au
  constrain_relaxation .true.
atom_frac       0.18552935      0.07412875      0.51070949 Au
  constrain_relaxation .true.
atom_frac       0.29635293      0.07425244      0.51083581 Au
  constrain_relaxation .true.
atom_frac       0.40711182      0.07425749      0.51085432 Au
  constrain_relaxation .true.
atom_frac       0.51804578      0.07409812      0.51075454 Au
  constrain_relaxation .true.
atom_frac       0.62915027      0.07406667      0.51060975 Au
  constrain_relaxation .true.
atom_frac       0.74037802      0.07423132      0.51051815 Au
  constrain_relaxation .true.
atom_frac       0.85166768      0.07436640      0.51049814 Au
  constrain_relaxation .true.
atom_frac       0.96291845      0.18563924      0.51067769 Au
  constrain_relaxation .true.
atom_frac       0.07424481      0.18544875      0.51062834 Au
  constrain_relaxation .true.
atom_frac       0.18535060      0.18533505      0.51064087 Au
  constrain_relaxation .true.
atom_frac       0.29619313      0.18529928      0.51067178 Au
  constrain_relaxation .true.
atom_frac       0.40699166      0.18527853      0.51065043 Au
  constrain_relaxation .true.
atom_frac       0.51796306      0.18532280      0.51062053 Au
  constrain_relaxation .true.
atom_frac       0.62912377      0.18551413      0.51064686 Au
  constrain_relaxation .true.
atom_frac       0.74035060      0.18573561      0.51070839 Au
  constrain_relaxation .true.
atom_frac       0.85159137      0.18579393      0.51072816 Au
  constrain_relaxation .true.
atom_frac       0.96302007      0.29660590      0.51089159 Au
  constrain_relaxation .true.
atom_frac       0.07422991      0.29640909      0.51071623 Au
  constrain_relaxation .true.
atom_frac       0.18524779      0.29626936      0.51063514 Au
  constrain_relaxation .true.
atom_frac       0.29610338      0.29622782      0.51062703 Au
  constrain_relaxation .true.
atom_frac       0.40696575      0.29630682      0.51067926 Au
  constrain_relaxation .true.
atom_frac       0.51795921      0.29646117      0.51082147 Au
  constrain_relaxation .true.
atom_frac       0.62909159      0.29672892      0.51100273 Au
  constrain_relaxation .true.
atom_frac       0.74038803      0.29690727      0.51111218 Au
  constrain_relaxation .true.
atom_frac       0.85172054      0.29681447      0.51106532 Au
  constrain_relaxation .true.
atom_frac       0.96322581      0.40729793      0.51102001 Au
  constrain_relaxation .true.
atom_frac       0.07422301      0.40717494      0.51075061 Au
  constrain_relaxation .true.
atom_frac       0.18521908      0.40708063      0.51063283 Au
  constrain_relaxation .true.
atom_frac       0.29614927      0.40712015      0.51069781 Au
  constrain_relaxation .true.
atom_frac       0.40700469      0.40721359      0.51092697 Au
  constrain_relaxation .true.
atom_frac       0.51793027      0.40737383      0.51121332 Au
  constrain_relaxation .true.
atom_frac       0.62917039      0.40755868      0.51144288 Au
  constrain_relaxation .true.
atom_frac       0.74065822      0.40766503      0.51146394 Au
  constrain_relaxation .true.
atom_frac       0.85209588      0.40746251      0.51130355 Au
  constrain_relaxation .true.
atom_frac       0.96315575      0.51810250      0.51099829 Au
  constrain_relaxation .true.
atom_frac       0.07414318      0.51803132      0.51069004 Au
  constrain_relaxation .true.
atom_frac       0.18528385      0.51800266      0.51064952 Au
  constrain_relaxation .true.
atom_frac       0.29626010      0.51804435      0.51089501 Au
  constrain_relaxation .true.
atom_frac       0.40710548      0.51806501      0.51127032 Au
  constrain_relaxation .true.
atom_frac       0.51812241      0.51829118      0.51166905 Au
  constrain_relaxation .true.
atom_frac       0.62929381      0.51846414      0.51184918 Au
  constrain_relaxation .true.
atom_frac       0.74099701      0.51830738      0.51165847 Au
  constrain_relaxation .true.
atom_frac       0.85228240      0.51814663      0.51137108 Au
  constrain_relaxation .true.
atom_frac       0.96289303      0.62913197      0.51083871 Au
  constrain_relaxation .true.
atom_frac       0.07415159      0.62909727      0.51060256 Au
  constrain_relaxation .true.
atom_frac       0.18546712      0.62909695      0.51074144 Au
  constrain_relaxation .true.
atom_frac       0.29646973      0.62906971      0.51114354 Au
  constrain_relaxation .true.
atom_frac       0.40726237      0.62915322      0.51155516 Au
  constrain_relaxation .true.
atom_frac       0.51835233      0.62926312      0.51191322 Au
  constrain_relaxation .true.
atom_frac       0.62964664      0.62947261      0.51188457 Au
  constrain_relaxation .true.
atom_frac       0.74099124      0.62924223      0.51162335 Au
  constrain_relaxation .true.
atom_frac       0.85198302      0.62913340      0.51126234 Au
  constrain_relaxation .true.
atom_frac       0.96282649      0.74031053      0.51062923 Au
  constrain_relaxation .true.
atom_frac       0.07433422      0.74030467      0.51057578 Au
  constrain_relaxation .true.
atom_frac       0.18570384      0.74027043      0.51086669 Au
  constrain_relaxation .true.
atom_frac       0.29670752      0.74031650      0.51129676 Au
  constrain_relaxation .true.
atom_frac       0.40746097      0.74063778      0.51161729 Au
  constrain_relaxation .true.
atom_frac       0.51829242      0.74092593      0.51176416 Au
  constrain_relaxation .true.
atom_frac       0.62943607      0.74074977      0.51168298 Au
  constrain_relaxation .true.
atom_frac       0.74059344      0.74042162      0.51140345 Au
  constrain_relaxation .true.
atom_frac       0.85159273      0.74028088      0.51099155 Au
  constrain_relaxation .true.
atom_frac       0.96298410      0.85156613      0.51049140 Au
  constrain_relaxation .true.
atom_frac       0.07452365      0.85152337      0.51059077 Au
  constrain_relaxation .true.
atom_frac       0.18584201      0.85145903      0.51091617 Au
  constrain_relaxation .true.
atom_frac       0.29667580      0.85173340      0.51126764 Au
  constrain_relaxation .true.
atom_frac       0.40731190      0.85218583      0.51147363 Au
  constrain_relaxation .true.
atom_frac       0.51814379      0.85226615      0.51150039 Au
  constrain_relaxation .true.
atom_frac       0.62923102      0.85183776      0.51134685 Au
  constrain_relaxation .true.
atom_frac       0.74034024      0.85149352      0.51103090 Au
  constrain_relaxation .true.
atom_frac       0.85154567      0.85148721      0.51066853 Au
  constrain_relaxation .true.
atom_frac       0.96307954      0.96289950      0.51045609 Au
  constrain_relaxation .true.
atom_frac       0.07452170      0.96278214      0.51058644 Au
  constrain_relaxation .true.
atom_frac       0.18572454      0.96277576      0.51083673 Au
  constrain_relaxation .true.
atom_frac       0.29651006      0.96308028      0.51108054 Au
  constrain_relaxation .true.
atom_frac       0.40719074      0.96334775      0.51118549 Au
  constrain_relaxation .true.
atom_frac       0.51809153      0.96316107      0.51113067 Au
  constrain_relaxation .true.
atom_frac       0.62917673      0.96279925      0.51091987 Au
  constrain_relaxation .true.
atom_frac       0.74036058      0.96272810      0.51065441 Au
  constrain_relaxation .true.
atom_frac       0.85165755      0.96286238      0.51047826 Au
  constrain_relaxation .true.
atom_frac       0.99854966      0.99996169      0.53274052 Au
  constrain_relaxation .true.
atom_frac       0.10760272      0.00162377      0.53296728 Au
  constrain_relaxation .true.
atom_frac       0.21761719      0.00352181      0.53329955 Au
  constrain_relaxation .true.
atom_frac       0.32939653      0.00481556      0.53353808 Au
  constrain_relaxation .true.
atom_frac       0.44260056      0.00498201      0.53356200 Au
  constrain_relaxation .true.
atom_frac       0.55594736      0.00389344      0.53339119 Au
  constrain_relaxation .true.
atom_frac       0.66829141      0.00202616      0.53306253 Au
  constrain_relaxation .true.
atom_frac       0.77935071      0.00026087      0.53278520 Au
  constrain_relaxation .true.
atom_frac       0.88933157      0.99941082      0.53268831 Au
  constrain_relaxation .true.
atom_frac       0.00017357      0.10928473      0.53282708 Au
  constrain_relaxation .true.
atom_frac       0.10983324      0.11142237      0.53288762 Au
  constrain_relaxation .true.
atom_frac       0.22013507      0.11328744      0.53306101 Au
  constrain_relaxation .true.
atom_frac       0.33154250      0.11413633      0.53316238 Au
  constrain_relaxation .true.
atom_frac       0.44375602      0.11359334      0.53309831 Au
  constrain_relaxation .true.
atom_frac       0.55608076      0.11185777      0.53293175 Au
  constrain_relaxation .true.
atom_frac       0.66806923      0.10968904      0.53282249 Au
  constrain_relaxation .true.
atom_frac       0.77954938      0.10811448      0.53282652 Au
  constrain_relaxation .true.
atom_frac       0.89026957      0.10792456      0.53284776 Au
  constrain_relaxation .true.
atom_frac       0.00223394      0.21897947      0.53306031 Au
  constrain_relaxation .true.
atom_frac       0.11194645      0.22133962      0.53295353 Au
  constrain_relaxation .true.
atom_frac       0.22193891      0.22289110      0.53296685 Au
  constrain_relaxation .true.
atom_frac       0.33263203      0.22306178      0.53297047 Au
  constrain_relaxation .true.
atom_frac       0.44405180      0.22176399      0.53293906 Au
  constrain_relaxation .true.
atom_frac       0.55608486      0.21941319      0.53298894 Au
  constrain_relaxation .true.
atom_frac       0.66854224      0.21707044      0.53315240 Au
  constrain_relaxation .true.
atom_frac       0.78079672      0.21599000      0.53328033 Au
  constrain_relaxation .true.
atom_frac       0.89206126      0.21677630      0.53323992 Au
  constrain_relaxation .true.
atom_frac       0.00378656      0.32994612      0.53330312 Au
  constrain_relaxation .true.
atom_frac       0.11307998      0.33203251      0.53303915 Au
  constrain_relaxation .true.
atom_frac       0.22242395      0.33292305      0.53295391 Au
  constrain_relaxation .true.
atom_frac       0.33241401      0.33236727      0.53299800 Au
  constrain_relaxation .true.
atom_frac       0.44350327      0.33042803      0.53319402 Au
  constrain_relaxation .true.
atom_frac       0.55594272      0.32764453      0.53348339 Au
  constrain_relaxation .true.
atom_frac       0.66937135      0.32552708      0.53371664 Au
  constrain_relaxation .true.
atom_frac       0.78234778      0.32547833      0.53379685 Au
  constrain_relaxation .true.
atom_frac       0.89376926      0.32735407      0.53363278 Au
  constrain_relaxation .true.
atom_frac       0.00420422      0.44231185      0.53336785 Au
  constrain_relaxation .true.
atom_frac       0.11279505      0.44357557      0.53301308 Au
  constrain_relaxation .true.
atom_frac       0.22140137      0.44372252      0.53296990 Au
  constrain_relaxation .true.
atom_frac       0.33083088      0.44272587      0.53324681 Au
  constrain_relaxation .true.
atom_frac       0.44191142      0.44061378      0.53365581 Au
  constrain_relaxation .true.
atom_frac       0.55529352      0.43806082      0.53389443 Au
  constrain_relaxation .true.
atom_frac       0.66999212      0.43694078      0.53401222 Au
  constrain_relaxation .true.
atom_frac       0.78341668      0.43799511      0.53403920 Au
  constrain_relaxation .true.
atom_frac       0.89467309      0.44021304      0.53379987 Au
  constrain_relaxation .true.
atom_frac       0.00327681      0.55524186      0.53323798 Au
  constrain_relaxation .true.
atom_frac       0.11116975      0.55558025      0.53291481 Au
  constrain_relaxation .true.
atom_frac       0.21910961      0.55543305      0.53310695 Au
  constrain_relaxation .true.
atom_frac       0.32817349      0.55473693      0.53361916 Au
  constrain_relaxation .true.
atom_frac       0.43963902      0.55343388      0.53397148 Au
  constrain_relaxation .true.
atom_frac       0.55430167      0.55178420      0.53431129 Au
  constrain_relaxation .true.
atom_frac       0.67001793      0.55203957      0.53413692 Au
  constrain_relaxation .true.
atom_frac       0.78357826      0.55303026      0.53406926 Au
  constrain_relaxation .true.
atom_frac       0.89444044      0.55433911      0.53377114 Au
  constrain_relaxation .true.
atom_frac       0.00140972      0.66774136      0.53298090 Au
  constrain_relaxation .true.
atom_frac       0.10886082      0.66773363      0.53289452 Au
  constrain_relaxation .true.
atom_frac       0.21650955      0.66802502      0.53336309 Au
  constrain_relaxation .true.
atom_frac       0.32576989      0.66832419      0.53387826 Au
  constrain_relaxation .true.
atom_frac       0.43829698      0.66835552      0.53405412 Au
  constrain_relaxation .true.
atom_frac       0.55411846      0.66814352      0.53410518 Au
  constrain_relaxation .true.
atom_frac       0.66997774      0.66807789      0.53413767 Au
  constrain_relaxation .true.
atom_frac       0.78292537      0.66800707      0.53399408 Au
  constrain_relaxation .true.
atom_frac       0.89313088      0.66792490      0.53354346 Au
  constrain_relaxation .true.
atom_frac       0.99944016      0.77936967      0.53278771 Au
  constrain_relaxation .true.
atom_frac       0.10696029      0.77975392      0.53298783 Au
  constrain_relaxation .true.
atom_frac       0.21503871      0.78084370      0.53355246 Au
  constrain_relaxation .true.
atom_frac       0.32531927      0.78204144      0.53396532 Au
  constrain_relaxation .true.
atom_frac       0.43891601      0.78276114      0.53410862 Au
  constrain_relaxation .true.
atom_frac       0.55470915      0.78271968      0.53410953 Au
  constrain_relaxation .true.
atom_frac       0.66948093      0.78198218      0.53403595 Au
  constrain_relaxation .true.
atom_frac       0.78160725      0.78092157      0.53371737 Au
  constrain_relaxation .true.
atom_frac       0.89129267      0.77989153      0.53313879 Au
  constrain_relaxation .true.
atom_frac       0.99826396      0.89009390      0.53273678 Au
  constrain_relaxation .true.
atom_frac       0.10640859      0.89117549      0.53304566 Au
  constrain_relaxation .true.
atom_frac       0.21548401      0.89285303      0.53353223 Au
  constrain_relaxation .true.
atom_frac       0.32689505      0.89428901      0.53385564 Au
  constrain_relaxation .true.
atom_frac       0.44079461      0.89491019      0.53394864 Au
  constrain_relaxation .true.
atom_frac       0.55548094      0.89450167      0.53390377 Au