# 
# This is the geometry file that corresponds to the current relaxation step.
# If you do not want this file to be written, set the "write_restart_geometry" flag to .false.
#  aims_uuid : 7A5A0C3B-7D41-4F75-A1CC-5C61088011F4                                
# 
  set_vacuum_level       103.343980
lattice_vector     16.35742505      0.00000000      0.00000000
lattice_vector     -8.17073830     14.17072870      0.00000000
lattice_vector      0.00000000      0.00000000    103.34910518
atom       0.00161756      0.93917265     51.70070856 W
atom       1.65063987      1.90594738     53.36119460 Se
atom       1.62893495      1.89149287     50.01813115 Se
atom      -1.63043179      3.77706648     51.70683748 W
atom       0.02268379      4.73157252     53.36809633 Se
atom      -0.00458723      4.71605534     50.01866584 Se
atom      -3.26885192      6.61122673     51.70097378 W
atom      -1.60712878      7.55626590     53.36140960 Se
atom      -1.63057711      7.54463938     50.01842613 Se
atom      -4.91210820      9.43896350     51.68177895 W
atom      -3.26689825     10.38372014     53.35269300 Se
atom      -3.26685773     10.38366947     50.01232408 Se
atom      -6.54505183     12.27106957     51.68165704 W
atom      -4.90449580     13.22381049     53.35259927 Se
atom      -4.90442309     13.22375767     50.01222435 Se
atom       3.27215100      0.95020676     51.68166989 W
atom       4.90701101      1.92691756     53.33710721 Se
atom       4.90709700      1.88391003     49.99640555 Se
atom       1.64667438      3.79618850     51.68009393 W
atom       3.33026892      4.82132367     53.30167207 Se
atom       3.25918837      4.74262026     49.96691247 Se
atom       0.02655274      6.60639819     51.68035741 W
atom       1.75631204      7.55224547     53.30197976 Se
atom       1.65195024      7.52997428     49.96694866 Se
atom      -1.62233226      9.43896317     51.68182648 W
atom       0.04079384     10.36679542     53.33720878 Se
atom       0.00353880     10.38832275     49.99651016 Se
atom      -3.26559912     12.27697627     51.68251731 W
atom      -1.62611755     13.22381007     53.35270513 Se
atom      -1.62603831     13.22379659     50.01232927 Se
atom       6.54129427      0.95023022     51.68177123 W
atom       8.16333577      1.90611376     53.36142526 Se
atom       8.18517877      1.89162446     50.01840491 Se
atom       4.90838270      3.80862914     51.63640607 W
atom       6.48673519      4.82184213     53.30187773 Se
atom       6.55822334      4.74263975     49.96687782 Se
atom       3.38422881      6.67222867     51.57509500 W
atom       4.91003935      7.55362801     49.80091681 Se
atom       1.66967957      9.42575127     51.63647285 W
atom       3.33595457     10.28657215     53.30191512 Se
atom       3.30306355     10.38806074     49.96685990 Se
atom       0.01381854     12.27104428     51.68183767 W
atom       1.65243348     13.19828311     53.36139298 Se
atom       1.65072646     13.22444437     50.01840669 Se
atom       9.81174948      0.93920924     51.70098161 W
atom      11.44492983      1.88233286     53.37970991 Se
atom      11.45204269      1.88656085     50.03503698 Se
atom       8.16980507      3.79641732     51.68035220 W
atom       9.79453685      4.73174246     53.36825934 Se
atom       9.82173115      4.71600073     50.01881542 Se
atom       6.43537319      6.67235654     51.57505146 W
atom       8.06408347      7.55226519     53.30188837 Se
atom       8.16838933      7.52991128     49.96686954 Se
atom       4.91138804      9.31580828     51.57500295 W
atom       6.48780279     10.28707485     53.30164545 Se
atom       6.52053812     10.38795157     49.96685758 Se
atom       3.29131327     12.25748693     51.68025599 W
atom       4.91347959     13.19737498     53.36806564 Se
atom       4.91332851     13.22874973     50.01860862 Se
atom      13.08538049      0.93552615     51.70682598 W
atom      14.72660413      1.88231671     53.37955097 Se
atom      14.71927646      1.88654992     50.03488336 Se
atom      11.44692838      3.77707878     51.70698810 W
atom      13.08735119      4.72530759     53.37970218 Se
atom      13.08724355      4.71699865     50.03502631 Se
atom       9.79315901      6.60646055     51.68032304 W
atom      11.42752969      7.55629222     53.36138257 Se
atom      11.45097847      7.54461572     50.01837578 Se
atom       8.15337736      9.42573821     51.63641987 W
atom       9.78286463     10.36688892     53.33710531 Se
atom       9.82014271     10.38828409     49.99642152 Se
atom       6.53493521     12.25764417     51.68006869 W
atom       8.17444730     13.19841729     53.36118664 Se
atom       8.17614163     13.22443641     50.01811982 Se
# 
# What follows is the current estimated Hessian matrix constructed by the BFGS algorithm.
# This is NOT the true Hessian matrix of the system.
# If you do not want this information here, switch it off using the "hessian_to_restart_geometry" keyword.
# 
trust_radius             0.0003001432
hessian_file
