# 
# This is the geometry file that corresponds to the current relaxation step.
# If you do not want this file to be written, set the "write_restart_geometry" flag to .false.
#  aims_uuid : 350CA2D8-BF1D-42A7-A11B-407422B2E712                                
# 
  set_vacuum_level        52.613254
lattice_vector     16.41708800      0.00000000      0.00000000
lattice_vector     -8.21125790     14.21583190      0.00000000
lattice_vector      0.00000000      0.00000000     99.89650741
atom       0.05190787      1.04950027      2.66500000 Mo
atom       1.69235230      2.01348083      4.33676180 Se
atom       1.69235230      2.01348083      0.99323820 Se
atom      -1.56655692      3.91842040      2.66500000 Mo
atom       0.10455300      4.95233416      4.33169557 Se
atom       0.10455300      4.95233416      0.99830443 Se
atom      -3.18165671      6.71460970      2.66500000 Mo
atom      -1.45058132      7.64460320      4.33161158 Se
atom      -1.45058132      7.64460320      0.99838842 Se
atom      -4.85809644      9.55009621      2.66500000 Mo
atom      -3.20281264     10.48850326      4.33671045 Se
atom      -3.20281264     10.48850326      0.99328955 Se
atom      -6.51828479     12.40219742      2.66500000 Mo
atom      -4.86886749     13.35432367      4.33490699 Se
atom      -4.86886749     13.35432367      0.99509301 Se
atom       3.33296116      1.04945103      2.66500000 Mo
atom       4.96812508      2.00675725      4.33827820 Se
atom       4.96812508      2.00675725      0.99172180 Se
atom       1.69178639      3.93358785      2.66500000 Mo
atom       3.27906037      4.95228473      4.33157620 Se
atom       3.27906037      4.95228473      0.99842380 Se
atom       0.28034632      6.84896729      2.66500000 Mo
atom      -1.53958720      9.52847422      2.66500000 Mo
atom       0.13624137     10.39368611      4.33159241 Se
atom       0.13624137     10.39368611      0.99840759 Se
atom      -3.21810714     12.39120556      2.66500000 Mo
atom      -1.57137028     13.32846917      4.33827505 Se
atom      -1.57137028     13.32846917      0.99172495 Se
atom       6.61418075      1.02758829      2.66500000 Mo
atom       8.25629615      1.97552140      4.34068251 Se
atom       8.25629615      1.97552140      0.98931749 Se
atom       4.95040410      3.91835597      2.66500000 Mo
atom       6.60119359      4.82947226      4.34237156 Se
atom       6.60119359      4.82947226      0.98762844 Se
atom       3.10231857      6.84905549      2.66500000 Mo
atom       4.83311868      7.64468523      4.33159146 Se
atom       4.83311868      7.64468523      0.99840854 Se
atom       1.69095558      9.29268533      2.66500000 Mo
atom       3.24530280     10.39357786      4.33170836 Se
atom       3.24530280     10.39357786      0.99829164 Se
atom       0.07578683     12.35783131      2.66500000 Mo
atom       1.69022610     13.33175469      4.34241550 Se
atom       1.69022610     13.33175469      0.98758450 Se
atom       9.90105311      1.02119414      2.66500000 Mo
atom      11.54559832      1.97552163      4.34069592 Se
atom      11.54559832      1.97552163      0.98930408 Se
atom       8.25151639      3.87691349      2.66500000 Mo
atom       9.90039625      4.82376812      4.34068493 Se
atom       9.90039625      4.82376812      0.98931507 Se
atom       6.56443834      6.71462049      2.66500000 Mo
atom       8.22865749      7.65538197      4.33827462 Se
atom       8.22865749      7.65538197      0.99172538 Se
atom       4.92128118      9.52860955      2.66500000 Mo
atom       6.58434413     10.48855173      4.33672309 Se
atom       6.58434413     10.48855173      0.99327691 Se
atom       3.30478475     12.35776113      2.66500000 Mo
atom       4.95176708     13.32843382      4.33825554 Se
atom       4.95176708     13.32843382      0.99174446 Se
atom      13.18783095      1.02758661      2.66500000 Mo
atom      14.83369886      2.00681557      4.33826313 Se
atom      14.83369886      2.00681557      0.99173687 Se
atom      11.54950969      3.87691881      2.66500000 Mo
atom      13.19959920      4.82946622      4.34238061 Se
atom      13.19959920      4.82946622      0.98761939 Se
atom       9.89994870      6.71983821      2.66500000 Mo
atom      11.57101819      7.65534946      4.33827917 Se
atom      11.57101819      7.65534946      0.99172083 Se
atom       8.23975419      9.55011708      2.66500000 Mo
atom       9.89928346     10.49772815      4.33488924 Se
atom       9.89928346     10.49772815      0.99511076 Se
atom       6.59867689     12.39119547      2.66500000 Mo
atom       8.24922303     13.35434323      4.33487969 Se
atom       8.24922303     13.35434323      0.99512031 Se
# 
# What follows is the current estimated Hessian matrix constructed by the BFGS algorithm.
# This is NOT the true Hessian matrix of the system.
# If you do not want this information here, switch it off using the "hessian_to_restart_geometry" keyword.
# 
