# 
# This is the geometry file that corresponds to the current relaxation step.
# If you do not want this file to be written, set the "write_restart_geometry" flag to .false.
#  aims_uuid : 811A0BA6-D354-48C4-A39E-DA5BB30761F1                                
# 
  set_vacuum_level        52.613254
lattice_vector     16.41708800      0.00000000      0.00000000
lattice_vector     -8.21125790     14.21583190      0.00000000
lattice_vector      0.00000000      0.00000000     99.89650741
atom       0.05195847      1.04947766      2.66500000 Mo
atom       1.69238714      2.01347743      4.33672165 Se
atom       1.69238714      2.01347743      0.99327835 Se
atom      -1.56654649      3.91845626      2.66500000 Mo
atom       0.10457348      4.95241518      4.33165449 Se
atom       0.10457348      4.95241518      0.99834551 Se
atom      -3.18169426      6.71459751      2.66500000 Mo
atom      -1.45058880      7.64464021      4.33154019 Se
atom      -1.45058880      7.64464021      0.99845981 Se
atom      -4.85810492      9.55009443      2.66500000 Mo
atom      -3.20287538     10.48853869      4.33669718 Se
atom      -3.20287538     10.48853869      0.99330282 Se
atom      -6.51824738     12.40217324      2.66500000 Mo
atom      -4.86887147     13.35431876      4.33490085 Se
atom      -4.86887147     13.35431876      0.99509915 Se
atom       3.33300827      1.04941449      2.66500000 Mo
atom       4.96813476      2.00675310      4.33825662 Se
atom       4.96813476      2.00675310      0.99174338 Se
atom       1.69184180      3.93362689      2.66500000 Mo
atom       3.27911300      4.95224839      4.33155746 Se
atom       3.27911300      4.95224839      0.99844254 Se
atom       0.28044254      6.84902939      2.66500000 Mo
atom      -1.53967033      9.52852389      2.66500000 Mo
atom       0.13620267     10.39368609      4.33154099 Se
atom       0.13620267     10.39368609      0.99845901 Se
atom      -3.21813334     12.39121631      2.66500000 Mo
atom      -1.57138772     13.32849265      4.33825165 Se
atom      -1.57138772     13.32849265      0.99174835 Se
atom       6.61420844      1.02758094      2.66500000 Mo
atom       8.25626645      1.97554233      4.34068000 Se
atom       8.25626645      1.97554233      0.98932000 Se
atom       4.95043864      3.91834472      2.66500000 Mo
atom       6.60118950      4.82947282      4.34233844 Se
atom       6.60118950      4.82947282      0.98766156 Se
atom       3.10246710      6.84894904      2.66500000 Mo
atom       4.83318105      7.64466804      4.33157532 Se
atom       4.83318105      7.64466804      0.99842468 Se
atom       1.69091578      9.29257464      2.66500000 Mo
atom       3.24525092     10.39353319      4.33166163 Se
atom       3.24525092     10.39353319      0.99833837 Se
atom       0.07577418     12.35781890      2.66500000 Mo
atom       1.69019144     13.33177909      4.34236989 Se
atom       1.69019144     13.33177909      0.98763011 Se
atom       9.90103600      1.02120590      2.66500000 Mo
atom      11.54557408      1.97554823      4.34068574 Se
atom      11.54557408      1.97554823      0.98931426 Se
atom       8.25151060      3.87690799      2.66500000 Mo
atom       9.90037958      4.82379764      4.34067260 Se
atom       9.90037958      4.82379764      0.98932740 Se
atom       6.56445686      6.71459873      2.66500000 Mo
atom       8.22867101      7.65537155      4.33824241 Se
atom       8.22867101      7.65537155      0.99175759 Se
atom       4.92128013      9.52854202      2.66500000 Mo
atom       6.58435982     10.48851733      4.33670004 Se
atom       6.58435982     10.48851733      0.99329996 Se
atom       3.30475853     12.35772444      2.66500000 Mo
atom       4.95174502     13.32844038      4.33822357 Se
atom       4.95174502     13.32844038      0.99177643 Se
atom      13.18779840      1.02758948      2.66500000 Mo
atom      14.83368959      2.00681456      4.33823781 Se
atom      14.83368959      2.00681456      0.99176219 Se
atom      11.54947804      3.87692254      2.66500000 Mo
atom      13.19955045      4.82948550      4.34236935 Se
atom      13.19955045      4.82948550      0.98763065 Se
atom       9.89993736      6.71980944      2.66500000 Mo
atom      11.57098280      7.65536581      4.33825319 Se
atom      11.57098280      7.65536581      0.99174681 Se
atom       8.23981279      9.55009710      2.66500000 Mo
atom       9.89929648     10.49773642      4.33490372 Se
atom       9.89929648     10.49773642      0.99509628 Se
atom       6.59872448     12.39118179      2.66500000 Mo
atom       8.24925827     13.35433213      4.33489859 Se
atom       8.24925827     13.35433213      0.99510141 Se
# 
# What follows is the current estimated Hessian matrix constructed by the BFGS algorithm.
# This is NOT the true Hessian matrix of the system.
# If you do not want this information here, switch it off using the "hessian_to_restart_geometry" keyword.
# 
trust_radius             0.0005124081
hessian_file
