# 
# This is the geometry file that corresponds to the current relaxation step.
# If you do not want this file to be written, set the "write_restart_geometry" flag to .false.
#  aims_uuid : 71945F8D-51DB-443A-A07A-92CB8DE48856                                
# 
  set_vacuum_level        52.613254
lattice_vector     16.41708800      0.00000000      0.00000000
lattice_vector     -8.21125790     14.21583190      0.00000000
lattice_vector      0.00000000      0.00000000     99.89650741
atom       0.04992380      1.02962161      2.66500000 Mo
atom       1.69153716      1.97730848      4.34345594 Se
atom       1.69153716      1.97730848      0.98654406 Se
atom      -1.59233548      3.87279788      2.66500000 Mo
atom       0.04928299      4.82046065      4.34344781 Se
atom       0.04928299      4.82046065      0.98655219 Se
atom      -3.23455678      6.71596384      2.66500000 Mo
atom      -1.59295583      7.66364270      4.34343959 Se
atom      -1.59295583      7.66364270      0.98656041 Se
atom      -4.87683375      9.55910695      2.66500000 Mo
atom      -3.23522213     10.50680388      4.34345859 Se
atom      -3.23522213     10.50680388      0.98654141 Se
atom      -6.51907109     12.40230193      2.66500000 Mo
atom      -4.87745870     13.34997235      4.34342941 Se
atom      -4.87745870     13.34997235      0.98657059 Se
atom       3.33332503      1.02961547      2.66500000 Mo
atom       4.97495971      1.97730930      4.34345087 Se
atom       4.97495971      1.97730930      0.98654913 Se
atom       1.69111956      3.87280495      2.66500000 Mo
atom       3.33270906      4.82046369      4.34345626 Se
atom       3.33270906      4.82046369      0.98654374 Se
atom       0.04884078      6.71594495      2.66500000 Mo
atom       1.69044878      7.66364101      4.34343839 Se
atom       1.69044878      7.66364101      0.98656161 Se
atom      -1.59344813      9.55912581      2.66500000 Mo
atom       0.04820620     10.50679749      4.34345913 Se
atom       0.04820620     10.50679749      0.98654087 Se
atom      -3.23565076     12.40230299      2.66500000 Mo
atom      -1.59404916     13.34997142      4.34344715 Se
atom      -1.59404916     13.34997142      0.98655285 Se
atom       6.61675003      1.02961526      2.66500000 Mo
atom       8.25837980      1.97730511      4.34345311 Se
atom       8.25837980      1.97730511      0.98654689 Se
atom       4.97449628      3.87279356      2.66500000 Mo
atom       6.61612496      4.82046795      4.34344494 Se
atom       6.61612496      4.82046795      0.98655506 Se
atom       3.33224485      6.71597079      2.66500000 Mo
atom       4.97387420      7.66363884      4.34343735 Se
atom       4.97387420      7.66363884      0.98656265 Se
atom       1.69001186      9.55913729      2.66500000 Mo
atom       3.33162955     10.50680495      4.34345234 Se
atom       3.33162955     10.50680495      0.98654766 Se
atom       0.04775598     12.40228636      2.66500000 Mo
atom       1.68937539     13.34996856      4.34345006 Se
atom       1.68937539     13.34996856      0.98654994 Se
atom       9.90015792      1.02964392      2.66500000 Mo
atom      11.54178843      1.97729591      4.34345253 Se
atom      11.54178843      1.97729591      0.98654747 Se
atom       8.25792511      3.87279889      2.66500000 Mo
atom       9.89954151      4.82046711      4.34345797 Se
atom       9.89954151      4.82046711      0.98654203 Se
atom       6.61567328      6.71596191      2.66500000 Mo
atom       8.25729244      7.66363481      4.34344626 Se
atom       8.25729244      7.66363481      0.98655374 Se
atom       4.97341861      9.55911696      2.66500000 Mo
atom       6.61503273     10.50679864      4.34346421 Se
atom       6.61503273     10.50679864      0.98653579 Se
atom       3.33116172     12.40228348      2.66500000 Mo
atom       4.97278152     13.34996486      4.34344308 Se
atom       4.97278152     13.34996486      0.98655692 Se
atom      13.18360294      1.02963574      2.66500000 Mo
atom      14.82522662      1.97730244      4.34343280 Se
atom      14.82522662      1.97730244      0.98656720 Se
atom      11.54134175      3.87278790      2.66500000 Mo
atom      13.18295093      4.82047916      4.34345956 Se
atom      13.18295093      4.82047916      0.98654044 Se
atom       9.89907364      6.71595925      2.66500000 Mo
atom      11.54070727      7.66364326      4.34344952 Se
atom      11.54070727      7.66364326      0.98655048 Se
atom       8.25683673      9.55912042      2.66500000 Mo
atom       9.89846299     10.50679996      4.34343661 Se
atom       9.89846299     10.50679996      0.98656339 Se
atom       6.61458080     12.40230694      2.66500000 Mo
atom       8.25620121     13.34997090      4.34345930 Se
atom       8.25620121     13.34997090      0.98654070 Se
# 
# What follows is the current estimated Hessian matrix constructed by the BFGS algorithm.
# This is NOT the true Hessian matrix of the system.
# If you do not want this information here, switch it off using the "hessian_to_restart_geometry" keyword.
# 
