  #=======================================================
  # FHI-aims file: geometry_mos2.in
  # Created using the Atomic Simulation Environment (ASE)
  # Wed Jan 26 11:30:31 2022
  #=======================================================
  lattice_vector 15.7211863000000012 -0.0013077000000000 0.0000000000000000
  lattice_vector -7.8616331500000003 13.6141377499999994 0.0000000000000000
  lattice_vector 0.0000000000000000 0.0000000000000000 103.1080520499999835
  atom 7.0735154500000021 13.1591537499999998 51.5540259599999899 Mo
  atom 0.7860311799999999 0.4536968600000000 53.1080520499999835 S
  atom 0.7860311700000001 0.4536968599999999 49.9999999999999929 S
  atom 13.3628219700000024 2.2678435499999998 51.5540259599999899 Mo
  atom -0.7862954500000001 3.1765244099999994 53.1080520499999835 S
  atom -0.7862954600000002 3.1765244099999999 49.9999999999999929 S
  atom 11.7904953400000032 4.9906711000000001 51.5540259599999899 Mo
  atom -2.3586220800000000 5.8993519599999997 53.1080520499999835 S
  atom -2.3586220899999999 5.8993519600000006 49.9999999999999929 S
  atom 10.2181687100000005 7.7134986500000018 51.5540259599999899 Mo
  atom -3.9309487100000009 8.6221795100000023 53.1080520499999835 S
  atom -3.9309487200000013 8.6221795100000040 49.9999999999999929 S
  atom 8.6458420800000031 10.4363261999999999 51.5540259599999899 Mo
  atom -5.5032753400000001 11.3450070600000004 53.1080520499999835 S
  atom -5.5032753500000000 11.3450070600000004 49.9999999999999929 S
  atom -5.5034335900000002 13.1601999100000011 51.5540259599999899 Mo
  atom 3.9302684400000008 0.4534353200000000 53.1080520499999835 S
  atom 3.9302684300000008 0.4534353200000000 49.9999999999999929 S
  atom 0.7858729300000004 2.2688897099999998 51.5540259599999899 Mo
  atom 2.3579418100000002 3.1762628700000004 53.1080520499999835 S
  atom 2.3579418000000003 3.1762628700000000 49.9999999999999929 S
  atom -0.7864536999999996 4.9917172600000006 51.5540259599999899 Mo
  atom 0.7856151800000003 5.8990904200000003 53.1080520499999835 S
  atom 0.7856151700000004 5.8990904200000003 49.9999999999999929 S
  atom -2.3587803300000001 7.7145448100000023 51.5540259599999899 Mo
  atom -0.7867114500000003 8.6219179700000019 53.1080520499999835 S
  atom -0.7867114599999998 8.6219179700000019 49.9999999999999929 S
  atom -3.9311069599999997 10.4373723600000012 51.5540259599999899 Mo
  atom -2.3590380799999999 11.3447455200000000 53.1080520499999835 S
  atom -2.3590380900000003 11.3447455200000000 49.9999999999999929 S
  atom -2.3591963299999992 13.1599383700000008 51.5540259599999899 Mo
  atom 7.0745057000000013 0.4531737800000000 53.1080520499999835 S
  atom 7.0745056900000023 0.4531737800000000 49.9999999999999929 S
  atom 3.9301101900000011 2.2686281699999999 51.5540259599999899 Mo
  atom 5.5021790700000013 3.1760013300000005 53.1080520499999835 S
  atom 5.5021790600000022 3.1760013300000001 49.9999999999999929 S
  atom 2.3577835600000006 4.9914557200000003 51.5540259599999899 Mo
  atom 3.9298524400000012 5.8988288799999999 53.1080520499999835 S
  atom 3.9298524300000017 5.8988288799999999 49.9999999999999929 S
  atom 0.7854569300000005 7.7142832700000019 51.5540259599999899 Mo
  atom 2.3575258100000003 8.6216564300000034 53.1080520499999835 S
  atom 2.3575258000000008 8.6216564300000016 49.9999999999999929 S
  atom -0.7868696999999992 10.4371108200000009 51.5540259599999899 Mo
  atom 0.7851991800000006 11.3444839799999997 53.1080520499999835 S
  atom 0.7851991700000011 11.3444839799999997 49.9999999999999929 S
  atom 0.7850409300000007 13.1596768300000004 51.5540259599999899 Mo
  atom 10.2187429600000019 0.4529122400000000 53.1080520499999835 S
  atom 10.2187429500000011 0.4529122400000000 49.9999999999999929 S
  atom 7.0743474500000012 2.2683666300000001 51.5540259599999899 Mo
  atom 8.6464163300000010 3.1757397900000002 53.1080520499999835 S
  atom 8.6464163200000019 3.1757397900000002 49.9999999999999929 S
  atom 5.5020208200000020 4.9911941799999999 51.5540259599999899 Mo
  atom 7.0740897000000018 5.8985673399999996 53.1080520499999835 S
  atom 7.0740896900000019 5.8985673399999996 49.9999999999999929 S
  atom 3.9296941900000011 7.7140217300000007 51.5540259599999899 Mo
  atom 5.5017630700000009 8.6213948900000013 53.1080520499999835 S
  atom 5.5017630600000018 8.6213948900000013 49.9999999999999929 S
  atom 2.3573675600000006 10.4368492800000006 51.5540259599999899 Mo
  atom 3.9294364400000021 11.3442224399999994 53.1080520499999835 S
  atom 3.9294364300000000 11.3442224399999994 49.9999999999999929 S
  atom 3.9292781900000011 13.1594152900000001 51.5540259599999899 Mo
  atom 13.3629802200000025 0.4526507000000000 53.1080520499999835 S
  atom 13.3629802100000017 0.4526507000000000 49.9999999999999929 S
  atom 10.2185847100000018 2.2681050899999997 51.5540259599999899 Mo
  atom 11.7906535900000016 3.1754782499999998 53.1080520499999835 S
  atom 11.7906535800000007 3.1754782499999998 49.9999999999999929 S
  atom 8.6462580800000026 4.9909326400000005 51.5540259599999899 Mo
  atom 10.2183269600000024 5.8983058000000002 53.1080520499999835 S
  atom 10.2183269500000016 5.8983058000000002 49.9999999999999929 S
  atom 7.0739314500000017 7.7137601900000003 51.5540259599999899 Mo
  atom 8.6460003300000015 8.6211333500000009 53.1080520499999835 S
  atom 8.6460003200000006 8.6211333500000009 49.9999999999999929 S
  atom 5.5016048200000016 10.4365877400000002 51.5540259599999899 Mo
  atom 7.0736737000000023 11.3439608999999990 53.1080520499999835 S
  atom 7.0736736900000023 11.3439608999999990 49.9999999999999929 S
