# 
# This is the geometry file that corresponds to the current relaxation step.
# If you do not want this file to be written, set the "write_restart_geometry" flag to .false.
#  aims_uuid : 29D5B743-D791-4C0D-A1EA-91F18785C40C                                
# 
  set_vacuum_level        53.413254
lattice_vector     16.41708800      0.00000000      0.00000000
lattice_vector     -8.21125790     14.21583190      0.00000000
lattice_vector      0.00000000      0.00000000     99.89650741
atom       0.04924729      1.02871950      2.65752805 Mo
atom       1.69147969      1.97671847      4.33400961 Se
atom       1.69237229      1.97724259      0.98177560 Se
atom      -1.59197766      3.87142418      2.65996827 Mo
atom       0.04798808      4.81860588      4.34029722 Se
atom       0.04577818      4.82253999      0.98111218 Se
atom      -3.23281945      6.71436232      2.66319409 Mo
atom      -1.59266030      7.66275436      4.34346584 Se
atom      -1.59264695      7.66476382      0.98535970 Se
atom      -4.87687897      9.56062003      2.66322353 Mo
atom      -3.23535789     10.50671487      4.34345031 Se
atom      -3.23365229     10.50570366      0.98538863 Se
atom      -6.51965480     12.40242965      2.66001262 Mo
atom      -4.87925837     13.34897586      4.34030062 Se
atom      -4.87701304     13.34504018      0.98111136 Se
atom       3.33730162      1.02434716      2.65736673 Mo
atom       4.96911485      1.97664060      4.34125555 Se
atom       4.97103472      1.96116110      0.96496859 Se
atom       1.68898201      3.87800871      2.65739210 Mo
atom       3.32968442      4.81489682      4.34131329 Se
atom       3.31720472      4.82437649      0.96499760 Se
atom       0.04771601      6.71438340      2.66320753 Mo
atom       1.69662762      7.65987248      4.33772109 Se
atom       1.69047194      7.66343455      0.98699947 Se
atom      -1.59309465      9.55876151      2.66521273 Mo
atom       0.04895197     10.50671367      4.34343467 Se
atom       0.04724001     10.50568095      0.98538442 Se
atom      -3.23713776     12.40131916      2.66319813 Mo
atom      -1.59374045     13.35640604      4.33767283 Se
atom      -1.59375955     13.34922631      0.98693902 Se
atom       6.61705809      1.03863470      2.65765202 Mo
atom       8.26485075      1.97661497      4.34122974 Se
atom       8.26290666      1.96112523      0.96492872 Se
atom       4.93091869      3.84710494      2.64393204 Mo
atom       6.61648750      4.81999010      4.23661630 Se
atom       6.61658867      4.81971047      6.49098236 Se
atom       6.61643303      4.82008901      1.00715179 Se
atom       3.34073614      6.71088673      2.65774822 Mo
atom       4.97701048      7.66874071      4.34134444 Se
atom       4.96261818      7.67482161      0.96503202 Se
atom       1.69067357      9.56060941      2.66322367 Mo
atom       3.33240971     10.50859625      4.34032497 Se
atom       3.32793837     10.50852987      0.98113918 Se
atom       0.04986304     12.40130052      2.66318047 Mo
atom       1.69177757     13.34899120      4.34025256 Se
atom       1.68951963     13.34503769      0.98109180 Se
atom       9.89690462      1.02438178      2.65732719 Mo
atom      11.54248149      1.97672178      4.33397923 Se
atom      11.54160668      1.97723716      0.98171989 Se
atom       8.30220672      3.84704493      2.64388687 Mo
atom       9.90318049      4.81489791      4.34127715 Se
atom       9.91563950      4.82438810      0.96494476 Se
atom       6.61596391      6.76622041      2.64397864 Mo
atom       8.25476112      7.66872497      4.34132618 Se
atom       8.26912589      7.67481194      0.96503292 Se
atom       4.96768424      9.55808962      2.65744104 Mo
atom       6.61534549     10.50685899      4.33407146 Se
atom       6.61534754     10.50580125      0.98181708 Se
atom       3.33238305     12.40242969      2.65997994 Mo
atom       4.97431821     13.35033370      4.33741285 Se
atom       4.97271068     13.34934681      0.97926512 Se
atom      13.18490713      1.02868347      2.65750179 Mo
atom      14.82549317      1.97553876      4.33737962 Se
atom      14.82552107      1.97741994      0.97926358 Se
atom      11.54405262      3.87800990      2.65734647 Mo
atom      13.18486152      4.81858391      4.34024963 Se
atom      13.18712058      4.82251669      0.98111079 Se
atom       9.89126536      6.71090779      2.65771782 Mo
atom      11.53512707      7.65986491      4.33770100 Se
atom      11.54129886      7.66345471      0.98699012 Se
atom       8.26323278      9.55807303      2.65743314 Mo
atom       9.89827496     10.50858662      4.34033401 Se
atom       9.90274998     10.50856022      0.98114837 Se
atom       6.61490761     12.40303165      2.65755261 Mo
atom       8.25527614     13.35033140      4.33742940 Se
atom       8.25691814     13.34935941      0.97928964 Se
# 
# What follows is the current estimated Hessian matrix constructed by the BFGS algorithm.
# This is NOT the true Hessian matrix of the system.
# If you do not want this information here, switch it off using the "hessian_to_restart_geometry" keyword.
# 
trust_radius             0.0004862741
hessian_file
