# 
# This is the geometry file that corresponds to the current relaxation step.
# If you do not want this file to be written, set the "write_restart_geometry" flag to .false.
#  aims_uuid : AF778052-76BD-4866-A448-6B4497147023                                
# 
  set_vacuum_level        53.413254
lattice_vector     16.41708800      0.00000000      0.00000000
lattice_vector     -8.21125790     14.21583190      0.00000000
lattice_vector      0.00000000      0.00000000     99.89650741
atom       0.04925952      1.02871773      2.65751373 Mo
atom       1.69149218      1.97671247      4.33405519 Se
atom       1.69241049      1.97726638      0.98171230 Se
atom      -1.59200004      3.87143549      2.65995027 Mo
atom       0.04798731      4.81859737      4.34029240 Se
atom       0.04577095      4.82251954      0.98108047 Se
atom      -3.23283817      6.71435928      2.66317544 Mo
atom      -1.59267757      7.66274337      4.34344043 Se
atom      -1.59265703      7.66473750      0.98535997 Se
atom      -4.87690456      9.56063415      2.66321219 Mo
atom      -3.23536550     10.50671009      4.34346850 Se
atom      -3.23364914     10.50568074      0.98535662 Se
atom      -6.51966981     12.40243845      2.66000605 Mo
atom      -4.87925717     13.34896459      4.34032295 Se
atom      -4.87703692     13.34507257      0.98109081 Se
atom       3.33726894      1.02437357      2.65737377 Mo
atom       4.96910154      1.97662965      4.34132278 Se
atom       4.97103157      1.96115999      0.96493703 Se
atom       1.68897949      3.87801571      2.65739775 Mo
atom       3.32969686      4.81487961      4.34137470 Se
atom       3.31724235      4.82438242      0.96499221 Se
atom       0.04770479      6.71438298      2.66320336 Mo
atom       1.69662514      7.65989072      4.33773895 Se
atom       1.69050594      7.66344674      0.98699698 Se
atom      -1.59312072      9.55876704      2.66520453 Mo
atom       0.04897451     10.50674509      4.34348078 Se
atom       0.04725915     10.50569449      0.98533409 Se
atom      -3.23716976     12.40133017      2.66316270 Mo
atom      -1.59370997     13.35640585      4.33767291 Se
atom      -1.59373099     13.34923945      0.98692600 Se
atom       6.61705291      1.03865890      2.65765853 Mo
atom       8.26488115      1.97660107      4.34124149 Se
atom       8.26290534      1.96112425      0.96488515 Se
atom       4.93091332      3.84710962      2.64393959 Mo
atom       6.61648173      4.81999944      4.23672601 Se
atom       6.61662717      4.81963845      6.49112297 Se
atom       6.61643624      4.82009925      1.00715594 Se
atom       3.34071506      6.71090605      2.65776815 Mo
atom       4.97701517      7.66874175      4.34138932 Se
atom       4.96261393      7.67479946      0.96507390 Se
atom       1.69066492      9.56064361      2.66319547 Mo
atom       3.33241487     10.50858836      4.34035358 Se
atom       3.32793968     10.50852796      0.98110469 Se
atom       0.04986386     12.40129749      2.66313014 Mo
atom       1.69177387     13.34896728      4.34027813 Se
atom       1.68954771     13.34504030      0.98102332 Se
atom       9.89687061      1.02436777      2.65730608 Mo
atom      11.54248690      1.97671254      4.33396642 Se
atom      11.54159150      1.97725319      0.98164567 Se
atom       8.30220442      3.84704237      2.64388931 Mo
atom       9.90320827      4.81487603      4.34128954 Se
atom       9.91565971      4.82438193      0.96492181 Se
atom       6.61593642      6.76621978      2.64403780 Mo
atom       8.25477044      7.66871226      4.34138554 Se
atom       8.26914375      7.67480784      0.96504451 Se
atom       4.96766490      9.55811310      2.65744857 Mo
atom       6.61535445     10.50685831      4.33413061 Se
atom       6.61535783     10.50575188      0.98178317 Se
atom       3.33235787     12.40241690      2.65996929 Mo
atom       4.97430185     13.35033718      4.33739916 Se
atom       4.97269068     13.34933399      0.97923955 Se
atom      13.18486870      1.02869136      2.65747494 Mo
atom      14.82551355      1.97553135      4.33741027 Se
atom      14.82554397      1.97742326      0.97918463 Se
atom      11.54404215      3.87802962      2.65733252 Mo
atom      13.18486455      4.81859390      4.34027613 Se
atom      13.18712786      4.82253868      0.98102218 Se
atom       9.89125581      6.71089358      2.65774278 Mo
atom      11.53516829      7.65986663      4.33771772 Se
atom      11.54129583      7.66346263      0.98695576 Se
atom       8.26320105      9.55808927      2.65746254 Mo
atom       9.89827421     10.50858972      4.34037478 Se
atom       9.90275624     10.50855629      0.98111888 Se
atom       6.61489107     12.40304458      2.65755946 Mo
atom       8.25529377     13.35032773      4.33743055 Se
atom       8.25693303     13.34933907      0.97927758 Se
# 
# What follows is the current estimated Hessian matrix constructed by the BFGS algorithm.
# This is NOT the true Hessian matrix of the system.
# If you do not want this information here, switch it off using the "hessian_to_restart_geometry" keyword.
# 
