# 
# This is the geometry file that corresponds to the current relaxation step.
# If you do not want this file to be written, set the "write_restart_geometry" flag to .false.
#  aims_uuid : 240B95F4-8D83-493B-A985-7BD1C4077AA3                                
# 
  set_vacuum_level        52.725270
lattice_vector     15.76960250      0.00000000      0.00000000
lattice_vector     -7.88732950     13.65525595      0.00000000
lattice_vector      0.00000000      0.00000000     99.30554027
atom       1.61328616      0.97319086      3.07250000 Mo
atom       0.03047916      1.88281873      4.63935958 S
atom       0.03047916      1.88281873      1.50564042 S
atom       0.03006204      3.70355556      3.07250000 Mo
atom      -1.56996389      4.60439835      4.63801730 S
atom      -1.56996389      4.60439835      1.50698270 S
atom      -1.56151361      6.42386284      3.07250000 Mo
atom      -3.15068053      7.32716565      4.63469809 S
atom      -3.15068053      7.32716565      1.51030191 S
atom      -3.13900908      9.15485104      3.07250000 Mo
atom      -4.71942554     10.05685096      4.63798317 S
atom      -4.71942554     10.05685096      1.50701683 S
atom      -4.70010859     11.89278222      3.07250000 Mo
atom      -6.27712587     12.80309795      4.63937299 S
atom      -6.27712587     12.80309795      1.50562701 S
atom       4.78025514      1.00527843      3.07250000 Mo
atom       3.19695437      1.88744099      4.63968344 S
atom       3.19695437      1.88744099      1.50531656 S
atom       3.22400991      3.69953421      3.07250000 Mo
atom       1.62988588      4.60438977      4.63800841 S
atom       1.62988588      4.60438977      1.50699159 S
atom       1.62062593      6.42384727      3.07250000 Mo
atom       0.02944129      7.33514040      4.63470967 S
atom       0.02944129      7.33514040      1.51029033 S
atom       0.02903441      9.16302633      3.07250000 Mo
atom      -1.55424736     10.07691268      4.63468900 S
atom      -1.55424736     10.07691268      1.51031100 S
atom      -1.54841128     11.91036783      3.07250000 Mo
atom      -3.11994821     12.82773069      4.63799348 S
atom      -3.11994821     12.82773069      1.50700652 S
atom       7.91532500      1.02468026      3.07250000 Mo
atom       6.38213453      1.98907061      4.63556707 S
atom       6.38213453      1.98907061      1.50943293 S
atom       6.49031806      3.78886461      3.07250000 Mo
atom       4.87705312      4.59468993      4.63548022 S
atom       4.87705312      4.59468993      1.50951978 S
atom       4.80803469      6.40452769      3.07250000 Mo
atom       3.20957269      7.32717443      4.63468792 S
atom       3.20957269      7.32717443      1.51031208 S
atom       3.19708709      9.15488444      3.07250000 Mo
atom       1.61210166     10.07690559      4.63470468 S
atom       1.61210166     10.07690559      1.51029532 S
atom       1.60549566     11.91032792      3.07250000 Mo
atom       0.02843334     12.83455539      4.63471233 S
atom       0.02843334     12.83455539      1.51028767 S
atom      11.05052527      1.00515681      3.07250000 Mo
atom       9.44843523      1.98894053      4.63549277 S
atom       9.44843523      1.98894053      1.50950723 S
atom       9.33946958      3.78878161      3.07250000 Mo
atom       7.91436366      6.25595865      3.07250000 Mo
atom       6.40973601      7.24995543      4.63550307 S
atom       6.40973601      7.24995543      1.50949693 S
atom       6.35815793      9.12905053      3.07250000 Mo
atom       4.77727597     10.05688345      4.63799640 S
atom       4.77727597     10.05688345      1.50700360 S
atom       4.75718669     11.89277280      3.07250000 Mo
atom       3.17681904     12.82766580      4.63801612 S
atom       3.17681904     12.82766580      1.50698388 S
atom      14.21750177      0.97319426      3.07250000 Mo
atom      12.63358714      1.88743238      4.63966694 S
atom      12.63358714      1.88743238      1.50533306 S
atom      12.60575727      3.69952508      3.07250000 Mo
atom      10.95247817      4.59469472      4.63547784 S
atom      10.95247817      4.59469472      1.50952216 S
atom      11.02064641      6.40454190      3.07250000 Mo
atom       9.41873976      7.24982289      4.63557339 S
atom       9.41873976      7.24982289      1.50942661 S
atom       9.46949499      9.12897754      3.07250000 Mo
atom       7.91374968     10.05886355      4.63968148 S
atom       7.91374968     10.05886355      1.50531852 S
atom       7.91337330     11.88747395      3.07250000 Mo
atom       6.33403012     12.80309190      4.63935711 S
atom       6.33403012     12.80309190      1.50564289 S
# 
# What follows is the current estimated Hessian matrix constructed by the BFGS algorithm.
# This is NOT the true Hessian matrix of the system.
# If you do not want this information here, switch it off using the "hessian_to_restart_geometry" keyword.
# 
trust_radius             0.0002274396
hessian_file
