# 
# This is the geometry file that corresponds to the current relaxation step.
# If you do not want this file to be written, set the "write_restart_geometry" flag to .false.
#  aims_uuid : 9F398B12-A676-43D8-A210-2E33AF120A04                                
# 
  set_vacuum_level        52.725270
lattice_vector     15.76960250      0.00000000      0.00000000
lattice_vector     -7.88732950     13.65525595      0.00000000
lattice_vector      0.00000000      0.00000000     99.30554027
atom       1.61329195      0.97319174      3.07250000 Mo
atom       0.03049451      1.88281142      4.63937697 S
atom       0.03049451      1.88281142      1.50562303 S
atom       0.03006461      3.70356659      3.07250000 Mo
atom      -1.56997408      4.60440178      4.63803354 S
atom      -1.56997408      4.60440178      1.50696646 S
atom      -1.56154773      6.42388873      3.07250000 Mo
atom      -3.15067540      7.32719923      4.63471777 S
atom      -3.15067540      7.32719923      1.51028223 S
atom      -3.13904295      9.15489611      3.07250000 Mo
atom      -4.71940156     10.05686099      4.63801608 S
atom      -4.71940156     10.05686099      1.50698392 S
atom      -4.70009056     11.89276944      3.07250000 Mo
atom      -6.27709772     12.80308161      4.63936562 S
atom      -6.27709772     12.80308161      1.50563438 S
atom       4.78022209      1.00522280      3.07250000 Mo
atom       3.19698202      1.88741442      4.63970217 S
atom       3.19698202      1.88741442      1.50529783 S
atom       3.22401087      3.69951761      3.07250000 Mo
atom       1.62990763      4.60436863      4.63804667 S
atom       1.62990763      4.60436863      1.50695333 S
atom       1.62063461      6.42384648      3.07250000 Mo
atom       0.02945681      7.33512962      4.63470733 S
atom       0.02945681      7.33512962      1.51029267 S
atom       0.02902110      9.16303576      3.07250000 Mo
atom      -1.55425487     10.07691577      4.63469815 S
atom      -1.55425487     10.07691577      1.51030185 S
atom      -1.54846684     11.91037336      3.07250000 Mo
atom      -3.11994609     12.82770333      4.63802526 S
atom      -3.11994609     12.82770333      1.50697474 S
atom       7.91527093      1.02463404      3.07250000 Mo
atom       6.38210526      1.98899593      4.63559113 S
atom       6.38210526      1.98899593      1.50940887 S
atom       6.49026179      3.78880465      3.07250000 Mo
atom       4.87707649      4.59464950      4.63551769 S
atom       4.87707649      4.59464950      1.50948231 S
atom       4.80811450      6.40448343      3.07250000 Mo
atom       3.20962656      7.32714277      4.63470024 S
atom       3.20962656      7.32714277      1.51029976 S
atom       3.19709522      9.15487399      3.07250000 Mo
atom       1.61211955     10.07689659      4.63470387 S
atom       1.61211955     10.07689659      1.51029613 S
atom       1.60545415     11.91034315      3.07250000 Mo
atom       0.02840700     12.83453478      4.63473304 S
atom       0.02840700     12.83453478      1.51026696 S
atom      11.05046023      1.00519323      3.07250000 Mo
atom       9.44838133      1.98898041      4.63551058 S
atom       9.44838133      1.98898041      1.50948942 S
atom       9.33934237      3.78885630      3.07250000 Mo
atom       7.91438994      6.25604039      3.07250000 Mo
atom       6.40978320      7.24995499      4.63553880 S
atom       6.40978320      7.24995499      1.50946120 S
atom       6.35816989      9.12905720      3.07250000 Mo
atom       4.77730534     10.05687514      4.63803495 S
atom       4.77730534     10.05687514      1.50696505 S
atom       4.75718001     11.89276675      3.07250000 Mo
atom       3.17681150     12.82767233      4.63803089 S
atom       3.17681150     12.82767233      1.50696911 S
atom      14.21748910      0.97320085      3.07250000 Mo
atom      12.63356086      1.88744877      4.63968048 S
atom      12.63356086      1.88744877      1.50531952 S
atom      12.60569348      3.69956470      3.07250000 Mo
atom      10.95241780      4.59472206      4.63549642 S
atom      10.95241780      4.59472206      1.50950358 S
atom      11.02065951      6.40461132      3.07250000 Mo
atom       9.41879145      7.24988583      4.63559712 S
atom       9.41879145      7.24988583      1.50940288 S
atom       9.46952561      9.12903496      3.07250000 Mo
atom       7.91378635     10.05885175      4.63970173 S
atom       7.91378635     10.05885175      1.50529827 S
atom       7.91337823     11.88746636      3.07250000 Mo
atom       6.33404499     12.80308243      4.63937489 S
atom       6.33404499     12.80308243      1.50562511 S
# 
# What follows is the current estimated Hessian matrix constructed by the BFGS algorithm.
# This is NOT the true Hessian matrix of the system.
# If you do not want this information here, switch it off using the "hessian_to_restart_geometry" keyword.
# 
trust_radius             0.0001983395
hessian_file
