# 
# This is the geometry file that corresponds to the current relaxation step.
# If you do not want this file to be written, set the "write_restart_geometry" flag to .false.
#  aims_uuid : 09C76D5D-39F3-4DF3-A7DE-E4883494C362                                
# 
  set_vacuum_level        -0.347230
lattice_vector     15.76960250      0.00000000      0.00000000
lattice_vector     -7.88732950     13.65525595      0.00000000
lattice_vector      0.00000000      0.00000000     99.30554027
atom      -3.94055958     -5.91679098    50.00000000 Mo
atom      -2.36369583     -5.00649347    48.43105260 S
atom      -2.36369583     -5.00649347    51.56894740 S
atom      -5.51804665     -3.18575200    50.00000000 Mo
atom      -3.94117314     -2.27543090    48.43108702 S
atom      -3.94117314     -2.27543090    51.56891298 S
atom      -7.09551374     -0.45471400    50.00000000 Mo
atom      -5.51863924      0.45561209    48.43108913 S
atom      -5.51863924      0.45561209    51.56891087 S
atom      -8.67297579      2.27637859    50.00000000 Mo
atom      -7.09609183      3.18666412    48.43107642 S
atom      -7.09609183      3.18666412    51.56892358 S
atom     -10.25043757      5.00742849    50.00000000 Mo
atom      -8.67357264      5.91771717    48.43106805 S
atom      -8.67357264      5.91771717    51.56893195 S
atom      -0.78667385     -5.91680792    50.00000000 Mo
atom       0.79020635     -5.00650247    48.43106454 S
atom       0.79020635     -5.00650247    51.56893546 S
atom      -2.36413352     -3.18575487    50.00000000 Mo
atom      -0.78724858     -2.27543608    48.43108194 S
atom      -0.78724858     -2.27543608    51.56891806 S
atom      -3.94158634     -0.45468087    50.00000000 Mo
atom      -2.36471354      0.45561925    48.43108621 S
atom      -2.36471354      0.45561925    51.56891379 S
atom      -5.51905056      2.27637300    50.00000000 Mo
atom      -3.94218516      3.18666099    48.43106531 S
atom      -3.94218516      3.18666099    51.56893469 S
atom      -7.09655218      5.00742461    50.00000000 Mo
atom      -5.51964982      5.91769726    48.43108538 S
atom      -5.51964982      5.91769726    51.56891462 S
atom       2.36725992     -5.91681341    50.00000000 Mo
atom       3.94412599     -5.00649165    48.43107328 S
atom       3.94412599     -5.00649165    51.56892672 S
atom       0.78978890     -3.18576887    50.00000000 Mo
atom       2.36667020     -2.27543852    48.43109698 S
atom       2.36667020     -2.27543852    51.56890302 S
atom      -0.78768506     -0.45470046    50.00000000 Mo
atom       0.78920402      0.45560996    48.43109500 S
atom       0.78920402      0.45560996    51.56890500 S
atom      -2.36514871      2.27637523    50.00000000 Mo
atom      -0.78826591      3.18666251    48.43107946 S
atom      -0.78826591      3.18666251    51.56892054 S
atom      -3.94259299      5.00740108    50.00000000 Mo
atom      -2.36573196      5.91771935    48.43108523 S
atom      -2.36573196      5.91771935    51.56891477 S
atom       5.52118193     -5.91679299    50.00000000 Mo
atom       7.09805297     -5.00648457    48.43107422 S
atom       7.09805297     -5.00648457    51.56892578 S
atom       3.94374083     -3.18575025    50.00000000 Mo
atom       5.52059251     -2.27543142    48.43108481 S
atom       5.52059251     -2.27543142    51.56891519 S
atom       2.36624468     -0.45470148    50.00000000 Mo
atom       3.94312160      0.45561511    48.43110616 S
atom       3.94312160      0.45561511    51.56889384 S
atom       0.78876501      2.27635844    50.00000000 Mo
atom       2.36564599      3.18666075    48.43109184 S
atom       2.36564599      3.18666075    51.56890816 S
atom      -0.78869733      5.00740196    50.00000000 Mo
atom       0.78818809      5.91770576    48.43110508 S
atom       0.78818809      5.91770576    51.56889492 S
atom       8.67509067     -5.91678893    50.00000000 Mo
atom      10.25197923     -5.00650025    48.43106932 S
atom      10.25197923     -5.00650025    51.56893068 S
atom       7.09762792     -3.18573783    50.00000000 Mo
atom       8.67451285     -2.27544953    48.43107590 S
atom       8.67451285     -2.27544953    51.56892410 S
atom       5.52016533     -0.45469408    50.00000000 Mo
atom       7.09704551      0.45561140    48.43109009 S
atom       7.09704551      0.45561140    51.56890991 S
atom       3.94270955      2.27638667    50.00000000 Mo
atom       5.51957875      3.18666676    48.43107514 S
atom       5.51957875      3.18666676    51.56892486 S
atom       2.36526250      5.00741901    50.00000000 Mo
atom       3.94211739      5.91771290    48.43107634 S
atom       3.94211739      5.91771290    51.56892366 S
# 
# What follows is the current estimated Hessian matrix constructed by the BFGS algorithm.
# This is NOT the true Hessian matrix of the system.
