#=======================================================
# FHI-aims file: geometry_supercell.in
# Created using the Atomic Simulation Environment (ASE)
# Tue Jan 25 19:29:49 2022
#=======================================================
lattice_vector 20.4425789068857640 0.0000000000000000 0.0000000000000000 
lattice_vector 10.2212894534428820 17.7037926522309874 0.0000000000000000 
lattice_vector 0.0000000000000000 0.0000000000000000 107.1534124783503472 
atom 0.0000000000000000 0.0000000000000000 50.0000000000000000 Au
atom 2.9203684152693947 0.0000000000000000 50.0000000000000000 Au
atom 5.8407368305387894 0.0000000000000000 50.0000000000000000 Au
atom 8.7611052458081851 0.0000000000000000 50.0000000000000000 Au
atom 11.6814736610775789 0.0000000000000000 50.0000000000000000 Au
atom 14.6018420763469727 0.0000000000000000 50.0000000000000000 Au
atom 17.5222104916163701 0.0000000000000000 50.0000000000000000 Au
atom 1.4601842076346974 2.5291132360329982 50.0000000000000000 Au
atom 4.3805526229040925 2.5291132360329982 50.0000000000000000 Au
atom 7.3009210381734864 2.5291132360329982 50.0000000000000000 Au
atom 10.2212894534428820 2.5291132360329982 50.0000000000000000 Au
atom 13.1416578687122758 2.5291132360329982 50.0000000000000000 Au
atom 16.0620262839816696 2.5291132360329982 50.0000000000000000 Au
atom 18.9823946992510670 2.5291132360329982 50.0000000000000000 Au
atom 2.9203684152693947 5.0582264720659964 50.0000000000000000 Au
atom 5.8407368305387894 5.0582264720659964 50.0000000000000000 Au
atom 8.7611052458081851 5.0582264720659964 50.0000000000000000 Au
atom 11.6814736610775789 5.0582264720659964 50.0000000000000000 Au
atom 14.6018420763469727 5.0582264720659964 50.0000000000000000 Au
atom 17.5222104916163666 5.0582264720659964 50.0000000000000000 Au
atom 20.4425789068857640 5.0582264720659964 50.0000000000000000 Au
atom 4.3805526229040925 7.5873397080989946 50.0000000000000000 Au
atom 7.3009210381734864 7.5873397080989946 50.0000000000000000 Au
atom 10.2212894534428820 7.5873397080989946 50.0000000000000000 Au
atom 13.1416578687122776 7.5873397080989946 50.0000000000000000 Au
atom 16.0620262839816696 7.5873397080989946 50.0000000000000000 Au
atom 18.9823946992510635 7.5873397080989946 50.0000000000000000 Au
atom 21.9027631145204609 7.5873397080989946 50.0000000000000000 Au
atom 5.8407368305387894 10.1164529441319928 50.0000000000000000 Au
atom 8.7611052458081851 10.1164529441319928 50.0000000000000000 Au
atom 11.6814736610775789 10.1164529441319928 50.0000000000000000 Au
atom 14.6018420763469745 10.1164529441319928 50.0000000000000000 Au
atom 17.5222104916163701 10.1164529441319928 50.0000000000000000 Au
atom 20.4425789068857640 10.1164529441319928 50.0000000000000000 Au
atom 23.3629473221551578 10.1164529441319928 50.0000000000000000 Au
atom 7.3009210381734864 12.6455661801649910 50.0000000000000000 Au
atom 10.2212894534428820 12.6455661801649910 50.0000000000000000 Au
atom 13.1416578687122758 12.6455661801649910 50.0000000000000000 Au
atom 16.0620262839816732 12.6455661801649910 50.0000000000000000 Au
atom 18.9823946992510670 12.6455661801649910 50.0000000000000000 Au
atom 21.9027631145204609 12.6455661801649910 50.0000000000000000 Au
atom 24.8231315297898583 12.6455661801649910 50.0000000000000000 Au
atom 8.7611052458081851 15.1746794161979892 50.0000000000000000 Au
atom 11.6814736610775789 15.1746794161979892 50.0000000000000000 Au
atom 14.6018420763469727 15.1746794161979892 50.0000000000000000 Au
atom 17.5222104916163701 15.1746794161979892 50.0000000000000000 Au
atom 20.4425789068857640 15.1746794161979892 50.0000000000000000 Au
atom 23.3629473221551578 15.1746794161979892 50.0000000000000000 Au
atom 26.2833157374245552 15.1746794161979892 50.0000000000000000 Au
atom 1.4601842076346974 0.8430377453443327 52.3844708261167824 Au
atom 4.3805526229040916 0.8430377453443327 52.3844708261167824 Au
atom 7.3009210381734873 0.8430377453443327 52.3844708261167824 Au
atom 10.2212894534428820 0.8430377453443327 52.3844708261167824 Au
atom 13.1416578687122758 0.8430377453443327 52.3844708261167824 Au
atom 16.0620262839816696 0.8430377453443327 52.3844708261167824 Au
atom 18.9823946992510635 0.8430377453443327 52.3844708261167824 Au
atom 2.9203684152693947 3.3721509813773309 52.3844708261167824 Au
atom 5.8407368305387894 3.3721509813773309 52.3844708261167824 Au
atom 8.7611052458081851 3.3721509813773309 52.3844708261167824 Au
atom 11.6814736610775789 3.3721509813773309 52.3844708261167824 Au
atom 14.6018420763469727 3.3721509813773309 52.3844708261167824 Au
atom 17.5222104916163666 3.3721509813773309 52.3844708261167824 Au
atom 20.4425789068857604 3.3721509813773309 52.3844708261167824 Au
atom 4.3805526229040925 5.9012642174103291 52.3844708261167824 Au
atom 7.3009210381734864 5.9012642174103291 52.3844708261167824 Au
atom 10.2212894534428820 5.9012642174103291 52.3844708261167824 Au
atom 13.1416578687122776 5.9012642174103291 52.3844708261167824 Au
atom 16.0620262839816696 5.9012642174103291 52.3844708261167824 Au
atom 18.9823946992510635 5.9012642174103291 52.3844708261167824 Au
atom 21.9027631145204573 5.9012642174103291 52.3844708261167824 Au
atom 5.8407368305387894 8.4303774534433273 52.3844708261167824 Au
atom 8.7611052458081833 8.4303774534433273 52.3844708261167824 Au
atom 11.6814736610775789 8.4303774534433273 52.3844708261167824 Au
atom 14.6018420763469745 8.4303774534433273 52.3844708261167824 Au
atom 17.5222104916163666 8.4303774534433273 52.3844708261167824 Au
atom 20.4425789068857604 8.4303774534433273 52.3844708261167824 Au
atom 23.3629473221551542 8.4303774534433273 52.3844708261167824 Au
atom 7.3009210381734864 10.9594906894763255 52.3844708261167824 Au
atom 10.2212894534428802 10.9594906894763255 52.3844708261167824 Au
atom 13.1416578687122758 10.9594906894763255 52.3844708261167824 Au
atom 16.0620262839816696 10.9594906894763255 52.3844708261167824 Au
atom 18.9823946992510635 10.9594906894763255 52.3844708261167824 Au
atom 21.9027631145204573 10.9594906894763255 52.3844708261167824 Au
atom 24.8231315297898512 10.9594906894763255 52.3844708261167824 Au
atom 8.7611052458081833 13.4886039255093237 52.3844708261167824 Au
atom 11.6814736610775789 13.4886039255093237 52.3844708261167824 Au
atom 14.6018420763469745 13.4886039255093237 52.3844708261167824 Au
atom 17.5222104916163701 13.4886039255093237 52.3844708261167824 Au
atom 20.4425789068857640 13.4886039255093237 52.3844708261167824 Au
atom 23.3629473221551578 13.4886039255093237 52.3844708261167824 Au
atom 26.2833157374245516 13.4886039255093237 52.3844708261167824 Au
atom 10.2212894534428802 16.0177171615423219 52.3844708261167824 Au
atom 13.1416578687122758 16.0177171615423219 52.3844708261167824 Au
atom 16.0620262839816696 16.0177171615423219 52.3844708261167824 Au
atom 18.9823946992510670 16.0177171615423219 52.3844708261167824 Au
atom 21.9027631145204609 16.0177171615423219 52.3844708261167824 Au
atom 24.8231315297898547 16.0177171615423219 52.3844708261167824 Au
atom 27.7434999450592485 16.0177171615423219 52.3844708261167824 Au
atom 0.0000000000000000 1.6860754906886655 54.7689416522335648 Au
atom 2.9203684152693952 1.6860754906886655 54.7689416522335648 Au
atom 5.8407368305387894 1.6860754906886655 54.7689416522335648 Au
atom 8.7611052458081833 1.6860754906886655 54.7689416522335648 Au
atom 11.6814736610775789 1.6860754906886655 54.7689416522335648 Au
atom 14.6018420763469745 1.6860754906886655 54.7689416522335648 Au
atom 17.5222104916163701 1.6860754906886655 54.7689416522335648 Au
atom 1.4601842076346971 4.2151887267216637 54.7689416522335648 Au
atom 4.3805526229040925 4.2151887267216637 54.7689416522335648 Au
atom 7.3009210381734873 4.2151887267216637 54.7689416522335648 Au
atom 10.2212894534428802 4.2151887267216637 54.7689416522335648 Au
atom 13.1416578687122758 4.2151887267216637 54.7689416522335648 Au
atom 16.0620262839816732 4.2151887267216637 54.7689416522335648 Au
atom 18.9823946992510670 4.2151887267216637 54.7689416522335648 Au
atom 2.9203684152693947 6.7443019627546619 54.7689416522335648 Au
atom 5.8407368305387894 6.7443019627546619 54.7689416522335648 Au
atom 8.7611052458081851 6.7443019627546619 54.7689416522335648 Au
atom 11.6814736610775789 6.7443019627546619 54.7689416522335648 Au
atom 14.6018420763469745 6.7443019627546619 54.7689416522335648 Au
atom 17.5222104916163701 6.7443019627546619 54.7689416522335648 Au
atom 20.4425789068857640 6.7443019627546619 54.7689416522335648 Au
atom 4.3805526229040916 9.2734151987876601 54.7689416522335648 Au
atom 7.3009210381734873 9.2734151987876601 54.7689416522335648 Au
atom 10.2212894534428820 9.2734151987876601 54.7689416522335648 Au
atom 13.1416578687122758 9.2734151987876601 54.7689416522335648 Au
atom 16.0620262839816696 9.2734151987876601 54.7689416522335648 Au
atom 18.9823946992510670 9.2734151987876601 54.7689416522335648 Au
atom 21.9027631145204609 9.2734151987876601 54.7689416522335648 Au
atom 5.8407368305387903 11.8025284348206583 54.7689416522335648 Au
atom 8.7611052458081851 11.8025284348206583 54.7689416522335648 Au
atom 11.6814736610775789 11.8025284348206583 54.7689416522335648 Au
atom 14.6018420763469727 11.8025284348206583 54.7689416522335648 Au
atom 17.5222104916163701 11.8025284348206583 54.7689416522335648 Au
atom 20.4425789068857640 11.8025284348206583 54.7689416522335648 Au
atom 23.3629473221551613 11.8025284348206583 54.7689416522335648 Au
atom 7.3009210381734873 14.3316416708536565 54.7689416522335648 Au
atom 10.2212894534428820 14.3316416708536565 54.7689416522335648 Au
atom 13.1416578687122776 14.3316416708536565 54.7689416522335648 Au
atom 16.0620262839816696 14.3316416708536565 54.7689416522335648 Au
atom 18.9823946992510670 14.3316416708536565 54.7689416522335648 Au
atom 21.9027631145204609 14.3316416708536565 54.7689416522335648 Au
atom 24.8231315297898583 14.3316416708536565 54.7689416522335648 Au
atom 8.7611052458081851 16.8607549068866547 54.7689416522335648 Au
atom 11.6814736610775789 16.8607549068866547 54.7689416522335648 Au
atom 14.6018420763469745 16.8607549068866547 54.7689416522335648 Au
atom 17.5222104916163666 16.8607549068866547 54.7689416522335648 Au
atom 20.4425789068857640 16.8607549068866547 54.7689416522335648 Au
atom 23.3629473221551578 16.8607549068866547 54.7689416522335648 Au
atom 26.2833157374245552 16.8607549068866547 54.7689416522335648 Au
atom 0.0000000000000000 0.0000000000000000 57.1534124783503472 Au
atom 2.9203684152693947 0.0000000000000000 57.1534124783503472 Au
atom 5.8407368305387894 0.0000000000000000 57.1534124783503472 Au
atom 8.7611052458081851 0.0000000000000000 57.1534124783503472 Au
atom 11.6814736610775789 0.0000000000000000 57.1534124783503472 Au
atom 14.6018420763469727 0.0000000000000000 57.1534124783503472 Au
atom 17.5222104916163701 0.0000000000000000 57.1534124783503472 Au
atom 1.4601842076346974 2.5291132360329982 57.1534124783503472 Au
atom 4.3805526229040925 2.5291132360329982 57.1534124783503472 Au
atom 7.3009210381734864 2.5291132360329982 57.1534124783503472 Au
atom 10.2212894534428820 2.5291132360329982 57.1534124783503472 Au
atom 13.1416578687122758 2.5291132360329982 57.1534124783503472 Au
atom 16.0620262839816696 2.5291132360329982 57.1534124783503472 Au
atom 18.9823946992510670 2.5291132360329982 57.1534124783503472 Au
atom 2.9203684152693947 5.0582264720659964 57.1534124783503472 Au
atom 5.8407368305387894 5.0582264720659964 57.1534124783503472 Au
atom 8.7611052458081851 5.0582264720659964 57.1534124783503472 Au
atom 11.6814736610775789 5.0582264720659964 57.1534124783503472 Au
atom 14.6018420763469727 5.0582264720659964 57.1534124783503472 Au
atom 17.5222104916163666 5.0582264720659964 57.1534124783503472 Au
atom 20.4425789068857640 5.0582264720659964 57.1534124783503472 Au
atom 4.3805526229040925 7.5873397080989946 57.1534124783503472 Au
atom 7.3009210381734864 7.5873397080989946 57.1534124783503472 Au
atom 10.2212894534428820 7.5873397080989946 57.1534124783503472 Au
atom 13.1416578687122776 7.5873397080989946 57.1534124783503472 Au
atom 16.0620262839816696 7.5873397080989946 57.1534124783503472 Au
atom 18.9823946992510635 7.5873397080989946 57.1534124783503472 Au
atom 21.9027631145204609 7.5873397080989946 57.1534124783503472 Au
atom 5.8407368305387894 10.1164529441319928 57.1534124783503472 Au
atom 8.7611052458081851 10.1164529441319928 57.1534124783503472 Au
atom 11.6814736610775789 10.1164529441319928 57.1534124783503472 Au
atom 14.6018420763469745 10.1164529441319928 57.1534124783503472 Au
atom 17.5222104916163701 10.1164529441319928 57.1534124783503472 Au
atom 20.4425789068857640 10.1164529441319928 57.1534124783503472 Au
atom 23.3629473221551578 10.1164529441319928 57.1534124783503472 Au
atom 7.3009210381734864 12.6455661801649910 57.1534124783503472 Au
atom 10.2212894534428820 12.6455661801649910 57.1534124783503472 Au
atom 13.1416578687122758 12.6455661801649910 57.1534124783503472 Au
atom 16.0620262839816732 12.6455661801649910 57.1534124783503472 Au
atom 18.9823946992510670 12.6455661801649910 57.1534124783503472 Au
atom 21.9027631145204609 12.6455661801649910 57.1534124783503472 Au
atom 24.8231315297898583 12.6455661801649910 57.1534124783503472 Au
atom 8.7611052458081851 15.1746794161979892 57.1534124783503472 Au
atom 11.6814736610775789 15.1746794161979892 57.1534124783503472 Au
atom 14.6018420763469727 15.1746794161979892 57.1534124783503472 Au
atom 17.5222104916163701 15.1746794161979892 57.1534124783503472 Au
atom 20.4425789068857640 15.1746794161979892 57.1534124783503472 Au
atom 23.3629473221551578 15.1746794161979892 57.1534124783503472 Au
atom 26.2833157374245552 15.1746794161979892 57.1534124783503472 Au
