#=======================================================
# FHI-aims file: geometry_mos2.in
# Created using the Atomic Simulation Environment (ASE)
# Tue Oct 11 14:52:16 2022
#=======================================================
lattice_vector 15.6668154000000008 -0.0013032000000000 0.0000000000000000 
lattice_vector -7.8344129500000008 13.5670000000000002 0.0000000000000000 
lattice_vector 0.0000000000000000 0.0000000000000000 103.0909873699999935 
atom 7.0490399900000007 13.1135743800000011 51.5454936199999949 Mo
atom 0.7833348700000000 0.4521344400000000 53.0909873700000006 S
atom 0.7833348600000000 0.4521344400000000 50.0000000000000000 S
atom 13.3165703500000010 2.2599743800000001 51.5454936199999949 Mo
atom -0.7835477200000002 3.1655344400000001 53.0909873700000006 S
atom -0.7835477300000002 3.1655344400000001 50.0000000000000000 S
atom 11.7496877600000023 4.9733743800000001 51.5454936199999949 Mo
atom -2.3504303100000006 5.8789344400000001 53.0909873700000006 S
atom -2.3504303200000005 5.8789344400000001 50.0000000000000000 S
atom 10.1828051700000000 7.6867743800000010 51.5454936199999949 Mo
atom -3.9173129000000011 8.5923344400000019 53.0909873700000006 S
atom -3.9173129100000015 8.5923344400000019 50.0000000000000000 S
atom 8.6159225799999994 10.4001743799999993 51.5454936199999949 Mo
atom -5.4841954900000012 11.3057344400000002 53.0909873700000006 S
atom -5.4841955000000011 11.3057344400000002 50.0000000000000000 S
atom -5.4844123300000005 13.1146169399999994 51.5454936199999949 Mo
atom 3.9166979500000010 0.4518738000000000 53.0909873700000006 S
atom 3.9166979400000019 0.4518738000000000 50.0000000000000000 S
atom 0.7831180300000000 2.2610169400000002 51.5454936199999949 Mo
atom 2.3498153600000000 3.1652738000000000 53.0909873700000006 S
atom 2.3498153500000005 3.1652738000000000 50.0000000000000000 S
atom -0.7837645599999998 4.9744169399999993 51.5454936199999949 Mo
atom 0.7829327700000003 5.8786738000000005 53.0909873700000006 S
atom 0.7829327600000013 5.8786738000000005 50.0000000000000000 S
atom -2.3506471499999999 7.6878169400000012 51.5454936199999949 Mo
atom -0.7839498199999999 8.5920738000000014 53.0909873700000006 S
atom -0.7839498300000003 8.5920738000000014 50.0000000000000000 S
atom -3.9175297400000009 10.4012169400000012 51.5454936199999949 Mo
atom -2.3508324100000006 11.3054738000000015 53.0909873700000006 S
atom -2.3508324200000001 11.3054738000000015 50.0000000000000000 S
atom -2.3510492500000000 13.1143563000000007 51.5454936199999949 Mo
atom 7.0500610300000028 0.4516131600000000 53.0909873700000006 S
atom 7.0500610200000011 0.4516131600000000 50.0000000000000000 S
atom 3.9164811099999999 2.2607562999999997 51.5454936199999949 Mo
atom 5.4831784400000014 3.1650131600000000 53.0909873700000006 S
atom 5.4831784300000006 3.1650131599999995 50.0000000000000000 S
atom 2.3495985200000007 4.9741562999999998 51.5454936199999949 Mo
atom 3.9162958500000014 5.8784131600000000 53.0909873700000006 S
atom 3.9162958400000010 5.8784131600000000 50.0000000000000000 S
atom 0.7827159300000005 7.6875563000000016 51.5454936199999949 Mo
atom 2.3494132600000013 8.5918131600000009 53.0909873700000006 S
atom 2.3494132500000005 8.5918131600000009 50.0000000000000000 S
atom -0.7841666599999993 10.4009563000000007 51.5454936199999949 Mo
atom 0.7825306700000008 11.3052131600000010 53.0909873700000006 S
atom 0.7825306599999996 11.3052131600000010 50.0000000000000000 S
atom 0.7823138300000013 13.1140956600000003 51.5454936199999949 Mo
atom 10.1834241100000025 0.4513525200000000 53.0909873700000006 S
atom 10.1834241000000034 0.4513525200000000 50.0000000000000000 S
atom 7.0498441900000000 2.2604956600000001 51.5454936199999949 Mo
atom 8.6165415200000037 3.1647525200000004 53.0909873700000006 S
atom 8.6165415100000029 3.1647525200000000 50.0000000000000000 S
atom 5.4829616000000021 4.9738956599999993 51.5454936199999949 Mo
atom 7.0496589300000032 5.8781525200000004 53.0909873700000006 S
atom 7.0496589200000033 5.8781525200000004 50.0000000000000000 S
atom 3.9160790100000002 7.6872956600000002 51.5454936199999949 Mo
atom 5.4827763400000009 8.5915525200000005 53.0909873700000006 S
atom 5.4827763300000010 8.5915525200000005 50.0000000000000000 S
atom 2.3491964200000011 10.4006956600000002 51.5454936199999949 Mo
atom 3.9158937500000013 11.3049525200000005 53.0909873700000006 S
atom 3.9158937400000009 11.3049525200000005 50.0000000000000000 S
atom 3.9156769100000020 13.1138350199999998 51.5454936199999949 Mo
atom 13.3167871900000030 0.4510918800000000 53.0909873700000006 S
atom 13.3167871800000039 0.4510918800000001 50.0000000000000000 S
atom 10.1832072700000023 2.2602350200000005 51.5454936199999949 Mo
atom 11.7499046000000007 3.1644918799999999 53.0909873700000006 S
atom 11.7499045900000034 3.1644918799999999 50.0000000000000000 S
atom 8.6163246800000017 4.9736350199999997 51.5454936199999949 Mo
atom 10.1830220100000020 5.8778918800000000 53.0909873700000006 S
atom 10.1830220000000029 5.8778918800000000 50.0000000000000000 S
atom 7.0494420899999994 7.6870350200000015 51.5454936199999949 Mo
atom 8.6161394200000014 8.5912918800000018 53.0909873700000006 S
atom 8.6161394100000024 8.5912918800000018 50.0000000000000000 S
atom 5.4825595000000007 10.4004350199999998 51.5454936199999949 Mo
atom 7.0492568300000018 11.3046918800000000 53.0909873700000006 S
atom 7.0492568200000036 11.3046918800000000 50.0000000000000000 S
atom 0.0000000000000000 0.0000000000000000  47.2888599   Ne
atom 3.1317759338752200 0.0000000000000000  47.2888599   Ne
atom 6.2635518677504400 0.0000000000000000  47.2888599   Ne
atom 9.3953278016256601 0.0000000000000000  47.2888599   Ne
atom 12.5271037355008801 0.0000000000000000 47.2888599   Ne
atom 1.5658879669376100 2.7121975176966737  47.2888599   Ne
atom 4.6976639008128300 2.7121975176966737  47.2888599   Ne
atom 7.8294398346880500 2.7121975176966737  47.2888599   Ne
atom 10.9612157685632710 2.7121975176966737 47.2888599   Ne
atom 14.0929917024384892 2.7121975176966737 47.2888599   Ne
atom 3.1317759338752200 5.4243950353933474  47.2888599   Ne
atom 6.2635518677504400 5.4243950353933474  47.2888599   Ne
atom 9.3953278016256601 5.4243950353933474  47.2888599   Ne
atom 12.5271037355008801 5.4243950353933474 47.2888599   Ne
atom 15.6588796693761001 5.4243950353933474 47.2888599   Ne
atom 4.6976639008128300 8.1365925530900221  47.2888599   Ne
atom 7.8294398346880500 8.1365925530900221  47.2888599   Ne
atom 10.9612157685632710 8.1365925530900221 47.2888599   Ne
atom 14.0929917024384892 8.1365925530900221 47.2888599   Ne
atom 17.2247676363137110 8.1365925530900221 47.2888599   Ne
atom 6.2635518677504400 10.8487900707866949 47.2888599   Ne
atom 9.3953278016256601 10.8487900707866949 47.2888599   Ne
atom 12.5271037355008801 10.848790070786694 47.2888599   Ne
atom 15.6588796693761001 10.848790070786694 47.2888599   Ne
atom 18.7906556032513201 10.848790070786694 47.2888599   Ne
