# 
# This is the geometry file that corresponds to the current relaxation step.
# If you do not want this file to be written, set the "write_restart_geometry" flag to .false.
#  aims_uuid : 4B988433-8D55-4A96-ABAB-6810A7655848                                
# 
  set_vacuum_level        52.535698
lattice_vector     15.80931190      0.00000000      0.00000000
lattice_vector     -7.90633915     13.69010115      0.00000000
lattice_vector      0.00000000      0.00000000     99.93885963
atom      -0.02908263      0.87947668      2.56673618 W
atom       1.55149334      1.80546518      4.13815096 S
atom       1.55150344      1.80548168      0.99535866 S
atom      -1.58974540      3.63538635      2.56674757 W
atom       0.01135766      4.61823638      4.13775622 S
atom       0.01136846      4.61822750      0.99575790 S
atom      -3.15268244      6.34168444      2.56673691 W
atom      -1.50085444      7.23669604      4.13769479 S
atom      -1.50084449      7.23667983      0.99578218 S
atom      -4.75972376      9.07081867      2.56671269 W
atom      -3.16737406      9.97647595      4.13809640 S
atom      -3.16736103      9.97650431      0.99534055 S
atom      -6.35441501     11.81626793      2.56671676 W
atom      -4.76786696     12.73216053      4.13761279 S
atom      -4.76783870     12.73218135      0.99586257 S
atom       3.13223149      0.87946876      2.56674983 W
atom       4.70744481      1.79871374      4.14081441 S
atom       4.70745300      1.79871036      0.99271110 S
atom       1.55120732      3.65467655      2.56676471 W
atom       3.09097131      4.61819907      4.13771322 S
atom       3.09097357      4.61817948      0.99581094 S
atom       0.12796932      6.43133420      2.56674811 W
atom      -1.56567101      9.05190585      2.56671671 W
atom       0.03868339      9.90352372      4.13767713 S
atom       0.03866387      9.90354821      0.99574977 S
atom      -3.17938311     11.80836412      2.56674910 W
atom      -1.59563252     12.71279256      4.14080939 S
atom      -1.59563865     12.71281181      0.99268590 S
atom       6.29110348      0.86223298      2.56676712 W
atom       7.87290052      1.77547711      4.14132577 S
atom       7.87287137      1.77546569      0.99216039 S
atom       4.69224319      3.63534743      2.56676735 W
atom       6.28041234      4.52267104      4.14111549 S
atom       6.28039688      4.52264467      0.99237401 S
atom       2.97385329      6.43133210      2.56673955 W
atom       4.60251858      7.23672650      4.13766749 S
atom       4.60250586      7.23670522      0.99576592 S
atom       1.55060658      8.89574282      2.56671802 W
atom       3.06234713      9.90349151      4.13772104 S
atom       3.06234216      9.90350665      0.99570659 S
atom      -0.01234827     11.78155780      2.56673710 W
atom       1.55017808     12.71327165      4.14109691 S
atom       1.55016358     12.71327655      0.99234404 S
atom       9.45625233      0.85722541      2.56671933 W
atom      11.03945796      1.77547625      4.14132507 S
atom      11.03946706      1.77547091      0.99213607 S
atom       7.86893366      3.60569772      2.56674185 W
atom       9.45584039      4.51759064      4.14131954 S
atom       9.45583525      4.51757812      0.99215123 S
atom       6.25449292      6.34168876      2.56671832 W
atom       7.85260306      7.24705522      4.14076623 S
atom       7.85260534      7.24703371      0.99265641 S
atom       4.66682742      9.05194916      2.56669974 W
atom       6.26839656      9.97650150      4.13808673 S
atom       6.26839052      9.97651866      0.99531693 S
atom       3.11280538     11.78153506      2.56672241 W
atom       4.69596487     12.71278736      4.14077369 S
atom       4.69596085     12.71280641      0.99265851 S
atom      12.62137886      0.86224873      2.56673886 W
atom      14.20487062      1.79873198      4.14079003 S
atom      14.20487065      1.79873317      0.99269270 S
atom      11.04287793      3.60569022      2.56673403 W
atom      12.63124847      4.52265811      4.14112007 S
atom      12.63126013      4.52265370      0.99236159 S
atom       9.45556676      6.34404574      2.56672741 W
atom      11.05836906      7.24704173      4.14078801 S
atom      11.05837897      7.24702873      0.99266385 S
atom       7.86087903      9.07083365      2.56670079 W
atom       9.45515831      9.98430783      4.13758484 S
atom       9.45517130      9.98431673      0.99583211 S
atom       6.27986938     11.80836850      2.56671915 W
atom       7.86818443     12.73216462      4.13759973 S
atom       7.86817963     12.73218873      0.99584448 S
# 
# What follows is the current estimated Hessian matrix constructed by the BFGS algorithm.
# This is NOT the true Hessian matrix of the system.
# If you do not want this information here, switch it off using the "hessian_to_restart_geometry" keyword.
# 
trust_radius             0.0002006665
hessian_file
