# 
# This is the geometry file that corresponds to the current relaxation step.
# If you do not want this file to be written, set the "write_restart_geometry" flag to .false.
#  aims_uuid : FC3C4BBE-517F-4DD9-A3D3-7CE00F385ADD                                
# 
  set_vacuum_level       103.343980
lattice_vector     16.35742505      0.00000000      0.00000000
lattice_vector     -8.17073830     14.17072870      0.00000000
lattice_vector      0.00000000      0.00000000    103.34910518
atom       0.00365711      0.93802090     51.66999954 W
atom       1.64391286      1.91255299     53.33907869 Se
atom       1.64388933      1.91256871     50.00089696 Se
atom      -1.62752288      3.77877074     51.67000596 W
atom       0.01653789      4.72814610     53.34287379 Se
atom       0.01651266      4.72811352     49.99712571 Se
atom      -3.26884780      6.61361050     51.66999715 W
atom      -1.60465994      7.54705391     53.33895767 Se
atom      -1.60467724      7.54702708     50.00099060 Se
atom      -4.91943164      9.43609262     51.66997331 W
atom      -3.26682717     10.38001246     53.33680023 Se
atom      -3.26683612     10.37998612     50.00309957 Se
atom      -6.55119055     12.26617953     51.66997674 W
atom      -4.90759016     13.22560779     53.33681159 Se
atom      -4.90762186     13.22561629     50.00311273 Se
atom       3.27333840      0.95798957     51.66996429 W
atom       4.90708010      1.91613674     53.34009462 Se
atom       4.90707091      1.91616272     49.99985622 Se
atom       1.65999660      3.81794103     51.67000475 W
atom       3.32449987      4.84243748     53.33133371 Se
atom       3.32450003      4.84242118     50.00865641 Se
atom       0.05237182      6.60704740     51.66997277 W
atom       1.77165917      7.53672115     53.33171950 Se
atom       1.77166213      7.53671176     50.00822190 Se
atom      -1.61492920      9.43604970     51.66998352 W
atom       0.03153975     10.37217268     53.34007401 Se
atom       0.03153687     10.37215840     49.99985142 Se
atom      -3.26554589     12.27698649     51.66992943 W
atom      -1.62283344     13.22563956     53.33679838 Se
atom      -1.62281862     13.22565261     50.00309930 Se
atom       6.54015053      0.95804963     51.66994630 W
atom       8.17014640      1.91279656     53.33899628 Se
atom       8.17016344      1.91279576     50.00093046 Se
atom       4.90844434      3.82661954     51.66999991 W
atom       6.49264547      4.84290169     53.33162127 Se
atom       6.49262047      4.84288348     50.00832561 Se
atom       3.50618303      6.74273865     51.66995600 W
atom       1.68541271      9.41667638     51.66995642 W
atom       3.35709200     10.28104078     53.33168553 Se
atom       3.35708489     10.28105476     50.00824322 Se
atom       0.02005984     12.26608696     51.66994374 W
atom       1.66161194     13.20083119     53.33897344 Se
atom       1.66163197     13.20084509     50.00097660 Se
atom       9.80973698      0.93805535     51.66995833 W
atom      11.44695786      1.88362818     53.34100234 Se
atom      11.44698416      1.88365479     49.99902539 Se
atom       8.15641029      3.81837043     51.66996051 W
atom       9.80061015      4.72820846     53.34290722 Se
atom       9.80065675      4.72820080     49.99709078 Se
atom       6.31331554      6.74290757     51.66994654 W
atom       8.04877610      7.53666913     53.33163121 Se
atom       8.04880388      7.53666185     50.00831920 Se
atom       4.91124245      9.17484556     51.66994996 W
atom       6.46665023     10.28150585     53.33128735 Se
atom       6.46666066     10.28151931     50.00863686 Se
atom       3.30365680     12.23485732     51.66997334 W
atom       4.91339757     13.20452352     53.34286760 Se
atom       4.91339933     13.20456207     49.99711570 Se
atom      13.08536170      0.93227283     51.67001651 W
atom      14.72443868      1.88360808     53.34100252 Se
atom      14.72442858      1.88361950     49.99903548 Se
atom      11.44400626      3.77881538     51.67001678 W
atom      13.08728929      4.72294904     53.34103466 Se
atom      13.08728828      4.72293024     49.99902844 Se
atom       9.76742527      6.60708273     51.66997104 W
atom      11.42511899      7.54706717     53.33900691 Se
atom      11.42512218      7.54705104     50.00099322 Se
atom       8.13778573      9.41667868     51.66998632 W
atom       9.79220470     10.37224412     53.34009126 Se
atom       9.79221081     10.37225234     49.99987650 Se
atom       6.52273112     12.23525185     51.66997227 W
atom       8.16538882     13.20098302     53.33906946 Se
atom       8.16538652     13.20099737     50.00091759 Se
# 
# What follows is the current estimated Hessian matrix constructed by the BFGS algorithm.
# This is NOT the true Hessian matrix of the system.
# If you do not want this information here, switch it off using the "hessian_to_restart_geometry" keyword.
# 
trust_radius             0.0003226675
hessian_file
