# 
# This is the geometry file that corresponds to the current relaxation step.
# If you do not want this file to be written, set the "write_restart_geometry" flag to .false.
#  aims_uuid : 0B98DB52-F400-4395-A407-1691BEB48C1B                                
# 
  set_vacuum_level        52.565332
lattice_vector     16.41708800      0.00000000      0.00000000
lattice_vector     -8.21125790     14.21583190      0.00000000
lattice_vector      0.00000000      0.00000000     99.89650741
atom       0.04999828      1.03942871      2.67740595 Mo
atom       1.69194940      2.02268032      4.33343786 Se
atom       1.69189666      1.97827564      0.99079302 Se
atom      -1.57939904      3.89227344      2.67417782 Mo
atom       0.10539793      4.92079337      4.30577927 Se
atom       0.03416703      4.83987197      0.95161517 Se
atom      -3.21101690      6.71706095      2.67407778 Mo
atom      -1.47787340      7.66162168      4.30568244 Se
atom      -1.58334787      7.64036295      0.95153190 Se
atom      -4.86804148      9.55390490      2.67730342 Mo
atom      -3.19536067     10.48399140      4.33331680 Se
atom      -3.23383005     10.50619182      0.99073740 Se
atom      -6.51869043     12.40227593      2.67778062 Mo
atom      -4.87349239     13.35191200      4.35205767 Se
atom      -4.87356506     13.35191207      1.00324907 Se
atom       3.33405950      1.03945393      2.67733371 Mo
atom       4.96143013      1.99775368      4.36086689 Se
atom       4.98253540      1.98207020      1.00818276 Se
atom       1.69146627      3.91472442      2.63059241 Mo
atom       3.27750872      4.92060979      4.30574826 Se
atom       3.34857056      4.83994362      0.95166684 Se
atom       0.13060006      6.76286009      2.57192143 Mo
atom       1.69093454      7.66357562      0.83642033 Se
atom      -1.55651863      9.53806428      2.63051342 Mo
atom       0.10768010     10.40850102      4.30564295 Se
atom       0.07332177     10.51042343      0.95152981 Se
atom      -3.22651655     12.39759209      2.67729760 Mo
atom      -1.58279488     13.32754280      4.36082370 Se
atom      -1.58582178     13.35370161      1.00815622 Se
atom       6.61561606      1.02870288      2.69536524 Mo
atom       8.25421333      1.97461952      4.37811871 Se
atom       8.26073381      1.97835393      1.02411643 Se
atom       4.96234730      3.89220538      2.67410304 Mo
atom       6.59550395      4.83254177      4.36465178 Se
atom       6.62115122      4.81775682      1.00934915 Se
atom       3.25128901      6.76285595      2.57204478 Mo
atom       4.85963866      7.66159079      4.30577423 Se
atom       4.96506638      7.64042735      0.95167601 Se
atom       1.69041141      9.46523349      2.57188083 Mo
atom       3.27289995     10.40833991      4.30577211 Se
atom       3.30739872     10.51046186      0.95160853 Se
atom       0.05879037     12.38166899      2.67405691 Mo
atom       1.68971550     13.32564786      4.36468891 Se
atom       1.68982896     13.35526724      1.00936460 Se
atom       9.90061390      1.02503391      2.70050349 Mo
atom      11.54672056      1.97465574      4.37819938 Se
atom      11.54033119      1.97836536      1.02419914 Se
atom       8.25435448      3.87506346      2.70047750 Mo
atom       9.89994494      4.82569883      4.37811866 Se
atom       9.89998548      4.81820286      1.02416401 Se
atom       6.59291289      6.71701466      2.67412499 Mo
atom       8.23293198      7.66541874      4.36088768 Se
atom       8.25706667      7.65499282      1.00822824 Se
atom       4.93736563      9.53809174      2.63061815 Mo
atom       6.57605606     10.48399040      4.33342436 Se
atom       6.61447451     10.50624304      0.99086557 Se
atom       3.32090048     12.38165176      2.67417629 Mo
atom       4.96234175     13.32751233      4.36097749 Se
atom       4.96539770     13.35370819      1.00833086 Se
atom      13.18558112      1.02870040      2.69552191 Mo
atom      14.83959754      1.99784819      4.36099935 Se
atom      14.81841836      1.98208440      1.00830006 Se
atom      11.54574207      3.87506596      2.70051552 Mo
atom      13.20442629      4.83262878      4.36467752 Se
atom      13.17880357      4.81771409      1.00939103 Se
atom       9.89950291      6.71777173      2.69539397 Mo
atom      11.56592022      7.66542291      4.36086976 Se
atom      11.54174151      7.65494964      1.00816730 Se
atom       8.24886625      9.55393602      2.67737246 Mo
atom       9.89889266     10.50266159      4.35208398 Se
atom       9.89883581     10.50269468      1.00327026 Se
atom       6.60629702     12.39758247      2.67743754 Mo
atom       8.25309244     13.35192787      4.35212073 Se
atom       8.25303213     13.35194029      1.00336905 Se
# 
# What follows is the current estimated Hessian matrix constructed by the BFGS algorithm.
# This is NOT the true Hessian matrix of the system.
# If you do not want this information here, switch it off using the "hessian_to_restart_geometry" keyword.
# 
