# 
# This is the geometry file that corresponds to the current relaxation step.
# If you do not want this file to be written, set the "write_restart_geometry" flag to .false.
#  aims_uuid : EB025F2F-28B1-4528-A04F-A813850CA15A                                
# 
  set_vacuum_level        52.700086
lattice_vector     15.76960250      0.00000000      0.00000000
lattice_vector     -7.88732950     13.65525595      0.00000000
lattice_vector      0.00000000      0.00000000     99.30554027
atom       1.61090751      0.97126117      3.10498520 Mo
atom       0.03093294      1.88502986      4.67319336 S
atom       0.03093495      1.87718316      1.53740128 S
atom       0.03055661      3.70185421      3.09912827 Mo
atom      -1.56597090      4.61411780      4.65676099 S
atom      -1.54656520      4.60214669      1.52191911 S
atom      -1.55356531      6.42745392      3.08129261 Mo
atom      -3.15547426      7.32383035      4.63110174 S
atom      -3.12322934      7.34246451      1.50442835 S
atom      -3.13140287      9.15909676      3.08130986 Mo
atom      -4.70846330     10.05459058      4.65678676 S
atom      -4.70911716     10.07741477      1.52194760 S
atom      -4.70080084     11.89317455      3.09916864 Mo
atom      -6.27450487     12.80154957      4.67319345 S
atom      -6.28127010     12.80544963      1.53743740 S
atom       4.77107302      0.98474773      3.08136827 Mo
atom       3.20230569      1.89001591      4.66113484 S
atom       3.17944429      1.87670292      1.52536071 S
atom       3.20222439      3.70098922      3.08124380 Mo
atom       1.62686033      4.61410974      4.65675787 S
atom       1.60737070      4.60215907      1.52188082 S
atom       1.61361559      6.42745295      3.08129078 Mo
atom       0.02992384      7.33938100      4.64704063 S
atom       0.02991669      7.33815285      1.51558843 S
atom       0.02951341      9.16273462      3.08104577 Mo
atom      -1.54982746     10.07435590      4.64707110 S
atom      -1.55090930     10.07498470      1.51559189 S
atom      -1.54830126     11.90166030      3.08131920 Mo
atom      -3.11252565     12.81936357      4.65680715 S
atom      -3.13261719     12.80851624      1.52194568 S
atom       7.91585879      1.00302129      3.04034093 Mo
atom       6.38839717      1.96023852      4.60792772 S
atom       6.32179526      1.89523572      1.46924703 S
atom       6.38795982      3.72930911      2.99470367 Mo
atom       4.85558554      4.61373933      4.60790427 S
atom       4.76619520      4.58850600      1.46910766 S
atom       4.78987924      6.41488964      3.04022408 Mo
atom       3.21532094      7.32382736      4.63105179 S
atom       3.18300862      7.34250450      1.50442429 S
atom       3.19047316      9.15910573      3.08129407 Mo
atom       1.60865189     10.07433682      4.64703547 S
atom       1.60971926     10.07497033      1.51561293 S
atom       1.60633341     11.90164720      3.08131331 Mo
atom       0.02889553     12.84042022      4.63112019 S
atom       0.02889537     12.80317631      1.50445273 S
atom      11.06065534      0.98474712      3.08133792 Mo
atom       9.44311109      1.96008383      4.60796258 S
atom       9.50966298      1.89529887      1.46925916 S
atom       9.44271361      3.72923787      2.99481260 Mo
atom       7.91534574      4.61090786      1.40863933 S
atom       7.91488913      6.37438680      2.99475350 Mo
atom       6.38249036      7.25895503      4.60784874 S
atom       6.35966536      7.34903825      1.46920482 S
atom       6.34595814      9.14726863      3.08130278 Mo
atom       4.76729631     10.05461205      4.65678462 S
atom       4.76793871     10.07742414      1.52188509 S
atom       4.75886966     11.89315345      3.09913943 Mo
atom       3.17037060     12.81934254      4.65677251 S
atom       3.19044126     12.80851732      1.52194276 S
atom      14.22081817      0.97124231      3.10497602 Mo
atom      12.62917054      1.88997197      4.66113580 S
atom      12.65202001      1.87676593      1.52536927 S
atom      12.62852524      3.70094212      3.08132226 Mo
atom      10.97489166      4.61375722      4.60794398 S
atom      11.06426891      4.58852944      1.46924312 S
atom      11.03977914      6.41494367      3.04031995 Mo
atom       9.44691974      7.25884552      4.60793227 S
atom       9.46984326      7.34901749      1.46921437 S
atom       9.48267618      9.14720625      3.08134553 Mo
atom       7.91420164     10.05290214      4.66115445 S
atom       7.91423370     10.07930207      1.52534821 S
atom       7.91382474     11.89043234      3.10498282 Mo
atom       6.33231598     12.80154204      4.67319709 S
atom       6.33909867     12.80545341      1.53740731 S
# 
# What follows is the current estimated Hessian matrix constructed by the BFGS algorithm.
# This is NOT the true Hessian matrix of the system.
# If you do not want this information here, switch it off using the "hessian_to_restart_geometry" keyword.
# 
trust_radius             0.0004167525
hessian_file
