# 
# This is the geometry file that corresponds to the current relaxation step.
# If you do not want this file to be written, set the "write_restart_geometry" flag to .false.
#  aims_uuid : 5C61C745-3915-4334-A211-E1BB11CD43F9                                
# 
  set_vacuum_level        52.700086
lattice_vector     15.76960250      0.00000000      0.00000000
lattice_vector     -7.88732950     13.65525595      0.00000000
lattice_vector      0.00000000      0.00000000     99.30554027
atom       1.61088948      0.97126663      3.10497176 Mo
atom       0.03094975      1.88501788      4.67320099 S
atom       0.03095002      1.87716404      1.53738016 S
atom       0.03055626      3.70184010      3.09912070 Mo
atom      -1.56595632      4.61413062      4.65676578 S
atom      -1.54655953      4.60216071      1.52191799 S
atom      -1.55357534      6.42746293      3.08129098 Mo
atom      -3.15544679      7.32384173      4.63112636 S
atom      -3.12321792      7.34246402      1.50440142 S
atom      -3.13140268      9.15914210      3.08130151 Mo
atom      -4.70844593     10.05459770      4.65680692 S
atom      -4.70909582     10.07742492      1.52191230 S
atom      -4.70082726     11.89318706      3.09916139 Mo
atom      -6.27447559     12.80153672      4.67321756 S
atom      -6.28124465     12.80543616      1.53739361 S
atom       4.77103053      0.98473831      3.08134034 Mo
atom       3.20233188      1.88998106      4.66114342 S
atom       3.17948736      1.87673342      1.52534046 S
atom       3.20216280      3.70096381      3.08129014 Mo
atom       1.62686998      4.61411806      4.65675347 S
atom       1.60743242      4.60215390      1.52188313 S
atom       1.61360883      6.42742464      3.08127871 Mo
atom       0.02994141      7.33937823      4.64706267 S
atom       0.02992818      7.33815560      1.51554515 S
atom       0.02946770      9.16276173      3.08103121 Mo
atom      -1.54982672     10.07435573      4.64708189 S
atom      -1.55090458     10.07498192      1.51555815 S
atom      -1.54834063     11.90163639      3.08131027 Mo
atom      -3.11252327     12.81936513      4.65681283 S
atom      -3.13261564     12.80850410      1.52191783 S
atom       7.91580450      1.00302485      3.04033354 Mo
atom       6.38840635      1.96022791      4.60799388 S
atom       6.32180947      1.89526333      1.46917738 S
atom       6.38798949      3.72928953      2.99471131 Mo
atom       4.85562712      4.61375576      4.60791465 S
atom       4.76622937      4.58853009      1.46916977 S
atom       4.78989965      6.41495019      3.04029754 Mo
atom       3.21533843      7.32381312      4.63111389 S
atom       3.18308297      7.34244123      1.50438528 S
atom       3.19045483      9.15913217      3.08129075 Mo
atom       1.60865131     10.07432996      4.64706707 S
atom       1.60971464     10.07496365      1.51556381 S
atom       1.60632125     11.90165031      3.08131202 Mo
atom       0.02889958     12.84039343      4.63114185 S
atom       0.02890185     12.80316728      1.50442695 S
atom      11.06060159      0.98476843      3.08135645 Mo
atom       9.44311457      1.96010497      4.60800357 S
atom       9.50964211      1.89531431      1.46926249 S
atom       9.44263834      3.72928168      2.99483531 Mo
atom       7.91528783      4.61090296      1.40860561 S
atom       7.91481520      6.37439477      2.99469629 Mo
atom       6.38250812      7.25890886      4.60790847 S
atom       6.35962865      7.34895945      1.46917168 S
atom       6.34594935      9.14725272      3.08130087 Mo
atom       4.76730272     10.05459327      4.65676159 S
atom       4.76793846     10.07741143      1.52190142 S
atom       4.75888287     11.89317373      3.09913816 Mo
atom       3.17036289     12.81932539      4.65678054 S
atom       3.19043080     12.80850593      1.52194124 S
atom      14.22078164      0.97126431      3.10497465 Mo
atom      12.62919361      1.88995895      4.66117026 S
atom      12.65203561      1.87675706      1.52535146 S
atom      12.62847910      3.70097922      3.08134035 Mo
atom      10.97487551      4.61373969      4.60798756 S
atom      11.06424490      4.58853864      1.46924576 S
atom      11.03976156      6.41498302      3.04031707 Mo
atom       9.44691131      7.25882447      4.60797022 S
atom       9.46986319      7.34899781      1.46916404 S
atom       9.48270739      9.14727465      3.08133507 Mo
atom       7.91423203     10.05289330      4.66114709 S
atom       7.91426304     10.07928522      1.52534293 S
atom       7.91381068     11.89045767      3.10497517 Mo
atom       6.33233516     12.80153874      4.67320964 S
atom       6.33912302     12.80545121      1.53738624 S
# 
# What follows is the current estimated Hessian matrix constructed by the BFGS algorithm.
# This is NOT the true Hessian matrix of the system.
# If you do not want this information here, switch it off using the "hessian_to_restart_geometry" keyword.
# 
trust_radius             0.0004858128
hessian_file
