#=======================================================
# FHI-aims file: geometry_supercell.in
# Created using the Atomic Simulation Environment (ASE)
# Tue Oct 11 14:52:16 2022
#=======================================================
lattice_vector 15.6588796693760983 0.0000000000000000 0.0000000000000000 
lattice_vector 7.8294398346880492 13.5609875884833677 0.0000000000000000 
lattice_vector 0.0000000000000000 0.0000000000000000 100.0000000000000000 
atom 0.0000000000000000 0.0000000000000000  47.2888599   Ne
atom 3.1317759338752200 0.0000000000000000  47.2888599   Ne
atom 6.2635518677504400 0.0000000000000000  47.2888599   Ne
atom 9.3953278016256601 0.0000000000000000  47.2888599   Ne
atom 12.5271037355008801 0.0000000000000000 47.2888599   Ne
atom 1.5658879669376100 2.7121975176966737  47.2888599   Ne
atom 4.6976639008128300 2.7121975176966737  47.2888599   Ne
atom 7.8294398346880500 2.7121975176966737  47.2888599   Ne
atom 10.9612157685632710 2.7121975176966737 47.2888599   Ne
atom 14.0929917024384892 2.7121975176966737 47.2888599   Ne
atom 3.1317759338752200 5.4243950353933474  47.2888599   Ne
atom 6.2635518677504400 5.4243950353933474  47.2888599   Ne
atom 9.3953278016256601 5.4243950353933474  47.2888599   Ne
atom 12.5271037355008801 5.4243950353933474 47.2888599   Ne
atom 15.6588796693761001 5.4243950353933474 47.2888599   Ne
atom 4.6976639008128300 8.1365925530900221  47.2888599   Ne
atom 7.8294398346880500 8.1365925530900221  47.2888599   Ne
atom 10.9612157685632710 8.1365925530900221 47.2888599   Ne
atom 14.0929917024384892 8.1365925530900221 47.2888599   Ne
atom 17.2247676363137110 8.1365925530900221 47.2888599   Ne
atom 6.2635518677504400 10.8487900707866949 47.2888599   Ne
atom 9.3953278016256601 10.8487900707866949 47.2888599   Ne
atom 12.5271037355008801 10.848790070786694 47.2888599   Ne
atom 15.6588796693761001 10.848790070786694 47.2888599   Ne
atom 18.7906556032513201 10.848790070786694 47.2888599   Ne
