
  lattice_vector      3.13336308     -0.00026064      0.00000000
  lattice_vector     -1.56688259      2.71340000     -0.00000000
  lattice_vector      0.00000000     -0.00000000     99.99978532
  atom      -0.78336246     -0.45212242     -0.00000004 Mo
  atom       0.78333487      0.45213444      1.54549371 S
  atom       0.78333486      0.45213444     -1.54549366 S
