# 
# This is the geometry file that corresponds to the current relaxation step.
# If you do not want this file to be written, set the "write_restart_geometry" flag to .false.
#  aims_uuid : 14252BEF-9F17-4A49-AAE3-F1244B89FB6D                                
# 
  set_vacuum_level       103.108052
lattice_vector     15.72118630     -0.00130770      0.00000000
lattice_vector     -7.86163315     13.61413775      0.00000000
lattice_vector      0.00000000      0.00000000    103.10805205
atom       7.06649428     13.15205800     51.59329242 Mo
atom       0.78877248      0.45212360     53.14323884 S
atom       0.77904096      0.45775496     50.04250850 S
atom      13.36154135      2.26855648     51.61212345 Mo
atom      -0.77231742      3.19704151     53.15397883 S
atom      -0.79292638      3.18080010     50.05200967 S
atom      11.77777273      4.98990377     51.59472144 Mo
atom      -2.35990672      5.91354893     53.14328912 S
atom      -2.36252947      5.88676824     50.03958302 S
atom      10.18825618      7.69643633     51.54675013 Mo
atom      -3.94403787      8.60891108     53.10992594 S
atom      -3.93073079      8.61255359     50.01575298 S
atom       8.62753102     10.41551959     51.56854250 Mo
atom      -5.51133498     11.32424754     53.12462187 S
atom      -5.51336669     11.34479265     50.02649497 S
atom      -5.50375123     13.16035218     51.58498308 Mo
atom       3.94424237      0.47079582     53.12465574 S
atom       3.92546145      0.46230869     50.02653169 S
atom       0.78847885      2.27849157     51.59331169 Mo
atom       2.37499735      3.22143509     53.11632142 S
atom       2.35147306      3.17409880     50.02022699 S
atom      -0.77621842      5.01104161     51.59025540 Mo
atom       0.86004415      5.98365925     53.09526165 S
atom       0.77080296      5.91364131     49.98649101 S
atom      -2.34855864      7.70908907     51.56977648 Mo
atom      -0.69956408      8.62532091     53.08114651 S
atom      -0.77609307      8.59377899     49.98003341 S
atom      -3.93290330     10.42991811     51.56680889 Mo
atom      -2.33389938     11.33023837     53.10013414 S
atom      -2.36344508     11.34733472     50.00792912 S
atom      -2.35364448     13.16518604     51.56685216 Mo
atom       7.07949904      0.47115964     53.11000189 S
atom       7.08301435      0.45783762     50.01583125 S
atom       3.93897269      2.29482383     51.56860606 Mo
atom       5.54028192      3.27185074     53.09051223 S
atom       5.49347122      3.20232562     49.98297127 S
atom       2.37390396      5.02467719     51.53047145 Mo
atom       3.96872722      5.97659071     53.04478886 S
atom       3.95368111      5.89111652     49.93212262 S
atom       0.84558755      7.74181224     51.49285733 Mo
atom       2.36018657      8.62011813     49.91221771 S
atom      -0.76081756     10.42204488     51.52926883 Mo
atom       0.82585932     11.26730911     53.08116843 S
atom       0.81492846     11.34941276     49.98007411 S
atom       0.79489047     13.15354727     51.56983798 Mo
atom      10.20585107      0.44700071     53.14333356 S
atom      10.22770379      0.46261939     50.03963392 S
atom       7.07417203      2.30273789     51.54684401 Mo
atom       8.59456377      3.24753538     53.10770161 S
atom       8.66815632      3.19539564     50.00010666 S
atom       5.54642541      5.03599474     51.48995491 Mo
atom       7.08346288      5.89314410     49.93400350 S
atom       3.91269590      7.72375331     51.44732281 Mo
atom       5.45385477      8.54883616     53.04475606 S
atom       5.52031511      8.60461262     49.93211061 S
atom       2.36357822     10.37095566     51.49288945 Mo
atom       3.89341158     11.23744202     53.09527967 S
atom       3.90940007     11.34979481     49.98649841 S
atom       3.91762632     13.14080834     51.59030109 Mo
atom      13.35223333      0.43032864     53.15398642 S
atom      13.35594100      0.45626501     50.05202878 S
atom      10.21291234      2.27945615     51.59477492 Mo
atom      11.78008991      3.18163168     53.16008398 S
atom      11.79556492      3.17264313     50.05415534 S
atom       8.59683323      5.01944798     51.51391241 Mo
atom      10.13023586      5.90738139     53.10765795 S
atom      10.21214427      5.86965201     50.00004111 S
atom       7.05726976      7.65288557     51.48993189 Mo
atom       8.58203153      8.54025066     53.09044737 S
atom       8.61878645      8.61555547     49.98290063 S
atom       5.48083743     10.40597992     51.53045799 Mo
atom       7.04310574     11.30663658     53.11627084 S
atom       7.07229049     11.35068543     50.02017726 S
# 
# What follows is the current estimated Hessian matrix constructed by the BFGS algorithm.
# This is NOT the true Hessian matrix of the system.
# If you do not want this information here, switch it off using the "hessian_to_restart_geometry" keyword.
# 
trust_radius             0.0002158707
hessian_file
