# 
# This is the geometry file that corresponds to the current relaxation step.
# If you do not want this file to be written, set the "write_restart_geometry" flag to .false.
#  aims_uuid : 36156624-5586-4EE6-A88B-F37C0D63B2DB                                
# 
  set_vacuum_level         2.834550
lattice_vector     26.37921681      0.00000000      0.00000000
lattice_vector     13.18960841     22.84507189      0.00000000
lattice_vector      0.00000000      0.00000000    107.15341248
atom_frac       0.99910564      0.99936812      0.46419461 Au
  constrain_relaxation .true.
atom_frac       0.11132365      0.00000617      0.46379927 Au
  constrain_relaxation .true.
atom_frac       0.22426697      0.99894617      0.46448776 Au
  constrain_relaxation .true.
atom_frac       0.33651389      0.99766368      0.46573782 Au
  constrain_relaxation .true.
atom_frac       0.44736878      0.99728036      0.46688298 Au
  constrain_relaxation .true.
atom_frac       0.55733396      0.99736897      0.46751202 Au
  constrain_relaxation .true.
atom_frac       0.66717031      0.99733803      0.46739971 Au
  constrain_relaxation .true.
atom_frac       0.77734277      0.99730719      0.46659074 Au
  constrain_relaxation .true.
atom_frac       0.88793353      0.99795541      0.46536280 Au
  constrain_relaxation .true.
atom_frac       0.99929090      0.11248669      0.46404958 Au
  constrain_relaxation .true.
atom_frac       0.11060738      0.11219082      0.46413660 Au
  constrain_relaxation .true.
atom_frac       0.22271857      0.11043792      0.46468622 Au
  constrain_relaxation .true.
atom_frac       0.33471331      0.10894838      0.46531057 Au
  constrain_relaxation .true.
atom_frac       0.44602160      0.10843793      0.46572124 Au
  constrain_relaxation .true.
atom_frac       0.55687504      0.10838098      0.46582974 Au
  constrain_relaxation .true.
atom_frac       0.66767913      0.10851077      0.46562836 Au
  constrain_relaxation .true.
atom_frac       0.77841748      0.10927476      0.46514098 Au
  constrain_relaxation .true.
atom_frac       0.88882415      0.11099096      0.46449805 Au
  constrain_relaxation .true.
atom_frac       0.99811257      0.22573422      0.46508756 Au
  constrain_relaxation .true.
atom_frac       0.10902332      0.22455730      0.46503573 Au
  constrain_relaxation .true.
atom_frac       0.22081497      0.22246708      0.46496266 Au
  constrain_relaxation .true.
atom_frac       0.33295476      0.22094046      0.46488031 Au
  constrain_relaxation .true.
atom_frac       0.44505006      0.22041613      0.46480463 Au
  constrain_relaxation .true.
atom_frac       0.55695339      0.22049153      0.46482027 Au
  constrain_relaxation .true.
atom_frac       0.66829222      0.22127155      0.46490719 Au
  constrain_relaxation .true.
atom_frac       0.77858717      0.22307523      0.46498109 Au
  constrain_relaxation .true.
atom_frac       0.88818385      0.22506368      0.46505470 Au
  constrain_relaxation .true.
atom_frac       0.99727843      0.33743994      0.46661497 Au
  constrain_relaxation .true.
atom_frac       0.10816106      0.33607059      0.46593528 Au
  constrain_relaxation .true.
atom_frac       0.21982379      0.33433793      0.46513757 Au
  constrain_relaxation .true.
atom_frac       0.33213438      0.33329666      0.46458821 Au
  constrain_relaxation .true.
atom_frac       0.44478694      0.33308584      0.46443556 Au
  constrain_relaxation .true.
atom_frac       0.55698557      0.33349521      0.46471514 Au
  constrain_relaxation .true.
atom_frac       0.66782872      0.33480609      0.46535571 Au
  constrain_relaxation .true.
atom_frac       0.77751359      0.33656417      0.46616892 Au
  constrain_relaxation .true.
atom_frac       0.88708750      0.33769593      0.46694388 Au
atom_frac       0.99729465      0.44760918      0.46789896 Au
  constrain_relaxation .true.
atom_frac       0.10806776      0.44665241      0.46649778 Au
  constrain_relaxation .true.
atom_frac       0.21960619      0.44586511      0.46518922 Au
  constrain_relaxation .true.
atom_frac       0.33206807      0.44570058      0.46454898 Au
  constrain_relaxation .true.
atom_frac       0.44491680      0.44570785      0.46466004 Au
  constrain_relaxation .true.
atom_frac       0.55680412      0.44603326      0.46550935 Au
  constrain_relaxation .true.
atom_frac       0.66716730      0.44695413      0.46693120 Au
  constrain_relaxation .true.
atom_frac       0.77693978      0.44780893      0.46819749 Au
  constrain_relaxation .true.
atom_frac       0.88694129      0.44805834      0.46857212 Au
  constrain_relaxation .true.
atom_frac       0.99747257      0.55715997      0.46846259 Au
  constrain_relaxation .true.
atom_frac       0.10809015      0.55689268      0.46655081 Au
  constrain_relaxation .true.
atom_frac       0.21973928      0.55723038      0.46515528 Au
  constrain_relaxation .true.
atom_frac       0.33266517      0.55750657      0.46478278 Au
  constrain_relaxation .true.
atom_frac       0.44569997      0.55708102      0.46545211 Au
  constrain_relaxation .true.
atom_frac       0.55714563      0.55692325      0.46710145 Au
  constrain_relaxation .true.
atom_frac       0.66724356      0.55729541      0.46894008 Au
  constrain_relaxation .true.
atom_frac       0.77712937      0.55762870      0.46992865 Au
  constrain_relaxation .true.
atom_frac       0.88719335      0.55756636      0.46975675 Au
  constrain_relaxation .true.
atom_frac       0.99737021      0.66680784      0.46809666 Au
  constrain_relaxation .true.
atom_frac       0.10812437      0.66732237      0.46608741 Au
  constrain_relaxation .true.
atom_frac       0.22050452      0.66826107      0.46499858 Au
  constrain_relaxation .true.
atom_frac       0.33428605      0.66809647      0.46542979 Au
atom_frac       0.44704639      0.66708091      0.46661347 Au
  constrain_relaxation .true.
atom_frac       0.55777001      0.66683095      0.46869177 Au
  constrain_relaxation .true.
atom_frac       0.66757123      0.66709121      0.47022195 Au
  constrain_relaxation .true.
atom_frac       0.77732278      0.66720153      0.47065161 Au
  constrain_relaxation .true.
atom_frac       0.88724542      0.66700595      0.46988174 Au
  constrain_relaxation .true.
atom_frac       0.99727281      0.77687907      0.46693740 Au
  constrain_relaxation .true.
atom_frac       0.10876318      0.77797510      0.46524212 Au
  constrain_relaxation .true.
atom_frac       0.22225255      0.77856728      0.46473487 Au
  constrain_relaxation .true.
atom_frac       0.33615843      0.77761199      0.46564058 Au
  constrain_relaxation .true.
atom_frac       0.44804889      0.77672809      0.46753644 Au
  constrain_relaxation .true.
atom_frac       0.55810540      0.77674793      0.46938388 Au
  constrain_relaxation .true.
atom_frac       0.66762901      0.77695847      0.47035691 Au
  constrain_relaxation .true.
atom_frac       0.77721905      0.77691032      0.47018645 Au
  constrain_relaxation .true.
atom_frac       0.88703074      0.77668198      0.46891017 Au
  constrain_relaxation .true.
atom_frac       0.99788566      0.88758636      0.46541315 Au
  constrain_relaxation .true.
atom_frac       0.11026416      0.88872850      0.46430114 Au
  constrain_relaxation .true.
atom_frac       0.22403718      0.88847646      0.46451350 Au
  constrain_relaxation .true.
atom_frac       0.33711560      0.88726259      0.46590217 Au
  constrain_relaxation .true.
atom_frac       0.44816979      0.88676082      0.46764633 Au
  constrain_relaxation .true.
atom_frac       0.55791793      0.88691928      0.46894569 Au
  constrain_relaxation .true.
atom_frac       0.66736313      0.88702194      0.46931348 Au
  constrain_relaxation .true.
atom_frac       0.77699722      0.88684741      0.46864611 Au
  constrain_relaxation .true.
atom_frac       0.88704533      0.88680111      0.46714921 Au
  constrain_relaxation .true.
atom_frac       0.03672499      0.03727375      0.48601236 Au
  constrain_relaxation .true.
atom_frac       0.14846681      0.03705161      0.48616940 Au
  constrain_relaxation .true.
atom_frac       0.26066599      0.03578795      0.48723119 Au
  constrain_relaxation .true.
atom_frac       0.37230923      0.03492411      0.48857769 Au
  constrain_relaxation .true.
atom_frac       0.48311479      0.03480645      0.48959169 Au
  constrain_relaxation .true.
atom_frac       0.59360182      0.03483953      0.48989249 Au
  constrain_relaxation .true.
atom_frac       0.70419501      0.03474502      0.48937058 Au
atom_frac       0.81487691      0.03507928      0.48820079 Au
  constrain_relaxation .true.
atom_frac       0.92567594      0.03617468      0.48686254 Au
  constrain_relaxation .true.
atom_frac       0.03618489      0.14968131      0.48655788 Au
  constrain_relaxation .true.
atom_frac       0.14732382      0.14881034      0.48672188 Au
  constrain_relaxation .true.
atom_frac       0.25928357      0.14725343      0.48711564 Au
  constrain_relaxation .true.
atom_frac       0.37124306      0.14617841      0.48756785 Au
  constrain_relaxation .true.
atom_frac       0.48264892      0.14583272      0.48784383 Au
  constrain_relaxation .true.
atom_frac       0.59372526      0.14588018      0.48779262 Au
  constrain_relaxation .true.
atom_frac       0.70476126      0.14640397      0.48744663 Au
  constrain_relaxation .true.
atom_frac       0.81551541      0.14769763      0.48698274 Au
  constrain_relaxation .true.
atom_frac       0.92581469      0.14917814      0.48664470 Au
  constrain_relaxation .true.
atom_frac       0.03510900      0.26181513      0.48810341 Au
  constrain_relaxation .true.
atom_frac       0.14601465      0.26081469      0.48760976 Au
  constrain_relaxation .true.
atom_frac       0.25788141      0.25937049      0.48709275 Au
  constrain_relaxation .true.
atom_frac       0.37014992      0.25833423      0.48677585 Au
  constrain_relaxation .true.
atom_frac       0.48219165      0.25806060      0.48669089 Au
  constrain_relaxation .true.
atom_frac       0.59383928      0.25855432      0.48684473 Au
  constrain_relaxation .true.
atom_frac       0.70485682      0.25977653      0.48722424 Au
  constrain_relaxation .true.
atom_frac       0.81505662      0.26118773      0.48776774 Au
  constrain_relaxation .true.
atom_frac       0.92494531      0.26194440      0.48818546 Au
  constrain_relaxation .true.
atom_frac       0.03477602      0.37281477      0.48974261 Au
  constrain_relaxation .true.
atom_frac       0.14547763      0.37223049      0.48840077 Au
  constrain_relaxation .true.
atom_frac       0.25717058      0.37133159      0.48712068 Au
  constrain_relaxation .true.
atom_frac       0.36965904      0.37075711      0.48644006 Au
  constrain_relaxation .true.
atom_frac       0.48212775      0.37086193      0.48656051 Au
  constrain_relaxation .true.
atom_frac       0.59373401      0.37159694      0.48744161 Au
  constrain_relaxation .true.
atom_frac       0.70424899      0.37246311      0.48881560 Au
  constrain_relaxation .true.
atom_frac       0.81433541      0.37288851      0.49002706 Au
  constrain_relaxation .true.
atom_frac       0.92450847      0.37294787      0.49038956 Au
  constrain_relaxation .true.
atom_frac       0.03491321      0.48317586      0.49078070 Au
  constrain_relaxation .true.
atom_frac       0.14540879      0.48308411      0.48876216 Au
  constrain_relaxation .true.
atom_frac       0.25710842      0.48289402      0.48712031 Au
  constrain_relaxation .true.
atom_frac       0.36995338      0.48284941      0.48664559 Au
  constrain_relaxation .true.
atom_frac       0.48249672      0.48294521      0.48749310 Au
  constrain_relaxation .true.
atom_frac       0.59358702      0.48313258      0.48936151 Au
  constrain_relaxation .true.
atom_frac       0.70389553      0.48316704      0.49125394 Au
  constrain_relaxation .true.
atom_frac       0.81426625      0.48310164      0.49222267 Au
  constrain_relaxation .true.
atom_frac       0.92464402      0.48310924      0.49205513 Au
  constrain_relaxation .true.
atom_frac       0.03495186      0.59353947      0.49088703 Au
  constrain_relaxation .true.
atom_frac       0.14544813      0.59383810      0.48852159 Au
  constrain_relaxation .true.
atom_frac       0.25765744      0.59423182      0.48709016 Au
  constrain_relaxation .true.
atom_frac       0.37094234      0.59413941      0.48733978 Au
  constrain_relaxation .true.
atom_frac       0.48300064      0.59372045      0.48917218 Au
  constrain_relaxation .true.
atom_frac       0.59349046      0.59350303      0.49151265 Au
  constrain_relaxation .true.
atom_frac       0.70385056      0.59340788      0.49303536 Au
  constrain_relaxation .true.
atom_frac       0.81433737      0.59337664      0.49345197 Au
  constrain_relaxation .true.
atom_frac       0.92475578      0.59343004      0.49270491 Au
  constrain_relaxation .true.
atom_frac       0.03481795      0.70401186      0.49003670 Au
  constrain_relaxation .true.
atom_frac       0.14583650      0.70471854      0.48779781 Au
  constrain_relaxation .true.
atom_frac       0.25891609      0.70510173      0.48708887 Au
  constrain_relaxation .true.
atom_frac       0.37208987      0.70448126      0.48833776 Au
  constrain_relaxation .true.
atom_frac       0.48319750      0.70393116      0.49076029 Au
  constrain_relaxation .true.
atom_frac       0.59340800      0.70387295      0.49277085 Au
  constrain_relaxation .true.
atom_frac       0.70383531      0.70386294      0.49373840 Au
  constrain_relaxation .true.
atom_frac       0.81435722      0.70386444      0.49357144 Au
  constrain_relaxation .true.
atom_frac       0.92469489      0.70386898      0.49228899 Au
  constrain_relaxation .true.
atom_frac       0.03497960      0.81463985      0.48848554 Au
  constrain_relaxation .true.
atom_frac       0.14699752      0.81548724      0.48689524 Au
  constrain_relaxation .true.
atom_frac       0.26039980      0.81529427      0.48719165 Au
  constrain_relaxation .true.
atom_frac       0.37271519      0.81442868      0.48916212 Au
  constrain_relaxation .true.
atom_frac       0.48320326      0.81420180      0.49143679 Au
  constrain_relaxation .true.
atom_frac       0.59341326      0.81429112      0.49290268 Au
  constrain_relaxation .true.
atom_frac       0.70385984      0.81432729      0.49328840 Au
  constrain_relaxation .true.
atom_frac       0.81431842      0.81426272      0.49258520 Au
  constrain_relaxation .true.
atom_frac       0.92454560      0.81419518      0.49083021 Au
  constrain_relaxation .true.
atom_frac       0.03593539      0.92559968      0.48684342 Au
  constrain_relaxation .true.
atom_frac       0.14829476      0.92608737      0.48624038 Au
  constrain_relaxation .true.
atom_frac       0.26110899      0.92529304      0.48730058 Au
  constrain_relaxation .true.
atom_frac       0.37277200      0.92449923      0.48926325 Au
  constrain_relaxation .true.
atom_frac       0.48321914      0.92447475      0.49101023 Au
  constrain_relaxation .true.
atom_frac       0.59350465      0.92461130      0.49188848 Au
  constrain_relaxation .true.
atom_frac       0.70391527      0.92458377      0.49173738 Au
  constrain_relaxation .true.
atom_frac       0.81431531      0.92442982      0.49057031 Au
  constrain_relaxation .true.
atom_frac       0.92480075      0.92463658      0.48866834 Au
  constrain_relaxation .true.
atom_frac       0.96337285      0.07410630      0.50815100 Au
  constrain_relaxation .true.
atom_frac       0.07393165      0.07417247      0.50787841 Au
  constrain_relaxation .true.
atom_frac       0.18464443      0.07406742      0.50837197 Au
  constrain_relaxation .true.
atom_frac       0.29559947      0.07424530      0.50948646 Au
  constrain_relaxation .true.
atom_frac       0.40646596      0.07513071      0.51070364 Au
  constrain_relaxation .true.
atom_frac       0.51746715      0.07593691      0.51140670 Au
  constrain_relaxation .true.
atom_frac       0.62898875      0.07578096      0.51128237 Au
  constrain_relaxation .true.
atom_frac       0.74083356      0.07483433      0.51037974 Au
  constrain_relaxation .true.
atom_frac       0.85244615      0.07412269      0.50912086 Au
  constrain_relaxation .true.
atom_frac       0.96327245      0.18493218      0.50895992 Au
  constrain_relaxation .true.
atom_frac       0.07384340      0.18495348      0.50892939 Au
  constrain_relaxation .true.
atom_frac       0.18466651      0.18501554      0.50881245 Au
  constrain_relaxation .true.
atom_frac       0.29586277      0.18524284      0.50892719 Au
  constrain_relaxation .true.
atom_frac       0.40701807      0.18573384      0.50920957 Au
  constrain_relaxation .true.
atom_frac       0.51814699      0.18595094      0.50932308 Au
  constrain_relaxation .true.
atom_frac       0.62960109      0.18559299      0.50913120 Au
  constrain_relaxation .true.
atom_frac       0.74125142      0.18514564      0.50886686 Au
  constrain_relaxation .true.
atom_frac       0.85250873      0.18499450      0.50882688 Au
  constrain_relaxation .true.
atom_frac       0.96345863      0.29531904      0.51117596 Au
  constrain_relaxation .true.
atom_frac       0.07439495      0.29565486      0.51060566 Au
  constrain_relaxation .true.
atom_frac       0.18515920      0.29613031      0.50953375 Au
  constrain_relaxation .true.
atom_frac       0.29616930      0.29645075      0.50866988 Au
  constrain_relaxation .true.
atom_frac       0.40723948      0.29665092      0.50829640 Au
  constrain_relaxation .true.
atom_frac       0.51833561      0.29661930      0.50835629 Au
  constrain_relaxation .true.
atom_frac       0.62966665      0.29638248      0.50887095 Au
  constrain_relaxation .true.
atom_frac       0.74096228      0.29601291      0.50985026 Au
  constrain_relaxation .true.
atom_frac       0.85221566      0.29551816      0.51085143 Au
  constrain_relaxation .true.
atom_frac       0.96438827      0.40568673      0.51324251 Au
  constrain_relaxation .true.
atom_frac       0.07555439      0.40633599      0.51202537 Au
  constrain_relaxation .true.
atom_frac       0.18587063      0.40715420      0.51013375 Au
  constrain_relaxation .true.
atom_frac       0.29638845      0.40757293      0.50862675 Au
  constrain_relaxation .true.
atom_frac       0.40725703      0.40764742      0.50819769 Au
  constrain_relaxation .true.
atom_frac       0.51821910      0.40750392      0.50896757 Au
  constrain_relaxation .true.
atom_frac       0.62914704      0.40695431      0.51069007 Au
  constrain_relaxation .true.
atom_frac       0.74046861      0.40610732      0.51247509 Au
  constrain_relaxation .true.
atom_frac       0.85243174      0.40559720      0.51340384 Au
  constrain_relaxation .true.
atom_frac       0.96525648      0.51696338      0.51435907 Au
  constrain_relaxation .true.
atom_frac       0.07621369      0.51759870      0.51260994 Au
  constrain_relaxation .true.
atom_frac       0.18596556      0.51842187      0.51020252 Au
  constrain_relaxation .true.
atom_frac       0.29623368      0.51882925      0.50864311 Au
  constrain_relaxation .true.
atom_frac       0.40708389      0.51877132      0.50892381 Au
  constrain_relaxation .true.
atom_frac       0.51764997      0.51820137      0.51088630 Au
  constrain_relaxation .true.
atom_frac       0.62843580      0.51737666      0.51321425 Au
  constrain_relaxation .true.
atom_frac       0.74035321      0.51686077      0.51467629 Au
  constrain_relaxation .true.
atom_frac       0.85298683      0.51672202      0.51507193 Au
  constrain_relaxation .true.
atom_frac       0.96536522      0.62901901      0.51446883 Au
  constrain_relaxation .true.
atom_frac       0.07578505      0.62943408      0.51223412 Au
  constrain_relaxation .true.
atom_frac       0.18532770      0.63009449      0.50969082 Au
  constrain_relaxation .true.
atom_frac       0.29591122      0.63035252      0.50883028 Au
  constrain_relaxation .true.
atom_frac       0.40660257      0.62990679      0.51033136 Au
  constrain_relaxation .true.
atom_frac       0.51678829      0.62928288      0.51297329 Au
  constrain_relaxation .true.
atom_frac       0.62802330      0.62896985      0.51493248 Au
  constrain_relaxation .true.
atom_frac       0.74047028      0.62890661      0.51587301 Au
  constrain_relaxation .true.
atom_frac       0.85333475      0.62890986      0.51571153 Au
  constrain_relaxation .true.
atom_frac       0.96462486      0.74124924      0.51357333 Au
  constrain_relaxation .true.
atom_frac       0.07464014      0.74134879      0.51096844 Au
  constrain_relaxation .true.
atom_frac       0.18471838      0.74179254      0.50895288 Au
  constrain_relaxation .true.
atom_frac       0.29564829      0.74168778      0.50933360 Au
  constrain_relaxation .true.
atom_frac       0.40588868      0.74127092      0.51176982 Au
  constrain_relaxation .true.
atom_frac       0.51625820      0.74130495      0.51417560 Au
  constrain_relaxation .true.
atom_frac       0.62790272      0.74158518      0.51560833 Au
  constrain_relaxation .true.
atom_frac       0.74049556      0.74172011      0.51599313 Au
  constrain_relaxation .true.
atom_frac       0.85310206      0.74149978      0.51530101 Au
  constrain_relaxation .true.
atom_frac       0.96362910      0.85279056      0.51169283 Au
  constrain_relaxation .true.
atom_frac       0.07388676      0.85276513      0.50927139 Au
  constrain_relaxation .true.
atom_frac       0.18462800      0.85290837      0.50843001 Au
  constrain_relaxation .true.
atom_frac       0.29538177      0.85270593      0.50989881 Au
  constrain_relaxation .true.
atom_frac       0.40549337      0.85294772      0.51241067 Au
  constrain_relaxation .true.
atom_frac       0.51621171      0.85368586      0.51430430 Au
  constrain_relaxation .true.
atom_frac       0.62798565      0.85425816      0.51517866 Au
  constrain_relaxation .true.
atom_frac       0.74038150      0.85414365      0.51502729 Au
  constrain_relaxation .true.
atom_frac       0.85255319      0.85345282      0.51385655 Au
  constrain_relaxation .true.
atom_frac       0.96325102      0.96344292      0.50938583 Au
  constrain_relaxation .true.
atom_frac       0.07390414      0.96354857      0.50801794 Au
  constrain_relaxation .true.
atom_frac       0.18465449      0.96350828      0.50827088 Au
  constrain_relaxation .true.
atom_frac       0.29535464      0.96351534      0.50997435 Au
  constrain_relaxation .true.
atom_frac       0.40576493      0.96436104      0.51200319 Au
  constrain_relaxation .true.
atom_frac       0.51665399      0.96543741      0.51333616 Au
  constrain_relaxation .true.
atom_frac       0.62832803      0.96579878      0.51368404 Au
  constrain_relaxation .true.
atom_frac       0.74042442      0.96516182      0.51304509 Au
  constrain_relaxation .true.
atom_frac       0.85221805      0.96403107      0.51145266 Au
  constrain_relaxation .true.
atom_frac       0.00199382      0.00168723      0.53099405 Au
  constrain_relaxation .true.
atom_frac       0.11008005      0.00103138      0.53054127 Au
  constrain_relaxation .true.
atom_frac       0.21741790      0.00219755      0.53135244 Au
  constrain_relaxation .true.
atom_frac       0.32546584      0.00481658      0.53304502 Au
  constrain_relaxation .true.
atom_frac       0.43591019      0.00803049      0.53444958 Au
  constrain_relaxation .true.
atom_frac       0.54912685      0.01014533      0.53509639 Au
  constrain_relaxation .true.
atom_frac       0.66420185      0.00975339      0.53498283 Au
  constrain_relaxation .true.
atom_frac       0.77928808      0.00712633      0.53411669 Au
  constrain_relaxation .true.
atom_frac       0.89209063      0.00393689      0.53253280 Au
  constrain_relaxation .true.
atom_frac       0.00180001      0.10883823      0.53079281 Au
  constrain_relaxation .true.
atom_frac       0.11086500      0.10915307      0.53082411 Au
  constrain_relaxation .true.
atom_frac       0.21936706      0.11138114      0.53120472 Au
  constrain_relaxation .true.
atom_frac       0.32839887      0.11471813      0.53209096 Au
  constrain_relaxation .true.
atom_frac       0.43909089      0.11797946      0.53293243 Au
  constrain_relaxation .true.
atom_frac       0.55190886      0.11909581      0.53318096 Au
  constrain_relaxation .true.
atom_frac       0.66606191      0.11717322      0.53273572 Au
  constrain_relaxation .true.
atom_frac       0.77964619      0.11368994      0.53180346 Au
  constrain_relaxation .true.
atom_frac       0.89148615      0.11058969      0.53103449 Au
  constrain_relaxation .true.
atom_frac       0.00322301      0.21569059      0.53225380 Au
  constrain_relaxation .true.
atom_frac       0.11332952      0.21723339      0.53187387 Au
  constrain_relaxation .true.
atom_frac       0.22258860      0.22037280      0.53133656 Au
  constrain_relaxation .true.
atom_frac       0.33190455      0.22381219      0.53122510 Au
  constrain_relaxation .true.
atom_frac       0.44229073      0.22608532      0.53135824 Au
  constrain_relaxation .true.
atom_frac       0.55421309      0.22566284      0.53132564 Au
  constrain_relaxation .true.
atom_frac       0.66699296      0.22287284      0.53121128 Au
  constrain_relaxation .true.
atom_frac       0.77966046      0.21938860      0.53146597 Au
  constrain_relaxation .true.
atom_frac       0.89189399      0.21656739      0.53203142 Au
  constrain_relaxation .true.
atom_frac       0.00576573      0.32420815      0.53418846 Au
  constrain_relaxation .true.
atom_frac       0.11677511      0.32666675      0.53323489 Au
  constrain_relaxation .true.
atom_frac       0.22594831      0.33021510      0.53182410 Au
  constrain_relaxation .true.
atom_frac       0.33453767      0.33320400      0.53092992 Au
  constrain_relaxation .true.
atom_frac       0.44382939      0.33415767      0.53073778 Au
  constrain_relaxation .true.
atom_frac       0.55448052      0.33249597      0.53110214 Au
  constrain_relaxation .true.
atom_frac       0.66639840      0.32918906      0.53221913 Au
  constrain_relaxation .true.
atom_frac       0.77940498      0.32579123      0.53358633 Au
  constrain_relaxation .true.
atom_frac       0.89292464      0.32386676      0.53431246 Au
  constrain_relaxation .true.
atom_frac       0.00845023      0.43588573      0.53542219 Au
  constrain_relaxation .true.
atom_frac       0.11961080      0.43852871      0.53406301 Au
  constrain_relaxation .true.
atom_frac       0.22772914      0.44174947      0.53212005 Au
  constrain_relaxation .true.
atom_frac       0.33485586      0.44377342      0.53091218 Au
  constrain_relaxation .true.
atom_frac       0.44283962      0.44340572      0.53111736 Au
  constrain_relaxation .true.
atom_frac       0.55255249      0.44085862      0.53267675 Au
  constrain_relaxation .true.
atom_frac       0.66462169      0.43765705      0.53453948 Au
  constrain_relaxation .true.
atom_frac       0.77902399      0.43536335      0.53566228 Au
  constrain_relaxation .true.
atom_frac       0.89436505      0.43468274      0.53595996 Au
  constrain_relaxation .true.
atom_frac       0.00979217      0.55036053      0.53588329 Au
  constrain_relaxation .true.
atom_frac       0.11995804      0.55256159      0.53414945 Au
  constrain_relaxation .true.
atom_frac       0.22656173      0.55485943      0.53192305 Au
  constrain_relaxation .true.
atom_frac       0.33263493      0.55557991      0.53110185 Au
  constrain_relaxation .true.
atom_frac       0.43988308      0.55429819      0.53252110 Au
  constrain_relaxation .true.
atom_frac       0.54970553      0.55184962      0.53472879 Au
  constrain_relaxation .true.
atom_frac       0.66308768      0.54989449      0.53623754 Au
  constrain_relaxation .true.
atom_frac       0.77916002      0.54890337      0.53694409 Au
  constrain_relaxation .true.
atom_frac       0.89559254      0.54907620      0.53682412 Au
  constrain_relaxation .true.
atom_frac       0.00891796      0.66616386      0.53558638 Au
  constrain_relaxation .true.
atom_frac       0.11753604      0.66738859      0.53347710 Au
  constrain_relaxation .true.
atom_frac       0.22337200      0.66820329      0.53142663 Au
  constrain_relaxation .true.
atom_frac       0.32919639      0.66806959      0.53184427 Au
  constrain_relaxation .true.
atom_frac       0.43653204      0.66701013      0.53416524 Au
  constrain_relaxation .true.
atom_frac       0.54752960      0.66593636      0.53604594 Au
  constrain_relaxation .true.
atom_frac       0.66231143      0.66550127      0.53714101 Au
  constrain_relaxation .true.
atom_frac       0.77930311      0.66540422      0.53743471 Au
  constrain_relaxation .true.
atom_frac       0.89573595      0.66557949      0.53690806 Au
  constrain_relaxation .true.
atom_frac       0.00639670      0.78106666      0.53452317 Au
  constrain_relaxation .true.
atom_frac       0.11404321      0.78080666      0.53218226 Au
  constrain_relaxation .true.
atom_frac       0.22001987      0.78064132      0.53118448 Au
  constrain_relaxation .true.
atom_frac       0.32598814      0.78088227      0.53286336 Au
  constrain_relaxation .true.
atom_frac       0.43433829      0.78119216      0.53509572 Au
  constrain_relaxation .true.
atom_frac       0.54658915      0.78189751      0.53655300 Au
  constrain_relaxation .true.
atom_frac       0.66223162      0.78246249      0.53723172 Au
  constrain_relaxation .true.
atom_frac       0.77920412      0.78235705      0.53711865 Au
  constrain_relaxation .true.
atom_frac       0.89469594      0.78166654      0.53621105 Au
  constrain_relaxation .true.
atom_frac       0.00371808      0.89292316      0.53271126 Au
  constrain_relaxation .true.
atom_frac       0.11128668      0.89181515      0.53098192 Au
  constrain_relaxation .true.
atom_frac       0.21768911      0.89202359      0.53132009 Au
  constrain_relaxation .true.
atom_frac       0.32450305      0.89341901      0.53336411 Au
  constrain_relaxation .true.
atom_frac       0.43410016      0.89546157      0.53518920 Au
  constrain_relaxation .true.
atom_frac       0.54720105      0.89737763      0.53623382 Au
  constrain_relaxation .true.
atom_frac       0.66285186      0.89799946      0.53650431 Au