# 
# This is the geometry file that corresponds to the current relaxation step.
# If you do not want this file to be written, set the "write_restart_geometry" flag to .false.
#  aims_uuid : D38B6353-D4D4-46CA-A965-7E6BC3FB521C                                
# 
  set_vacuum_level         2.662945
lattice_vector     26.28331574      0.00000000      0.00000000
lattice_vector     13.14165787     22.76201912      0.00000000
lattice_vector      0.00000000      0.00000000    107.15341248
atom       0.00000000      0.00000000     50.00000034 Au
  constrain_relaxation .true.
atom       2.92036839      0.00000000     50.00000034 Au
  constrain_relaxation .true.
atom       5.84073677      0.00000000     50.00000034 Au
  constrain_relaxation .true.
atom       8.76110516     -0.00000000     50.00000034 Au
  constrain_relaxation .true.
atom      11.68147355      0.00000000     50.00000034 Au
  constrain_relaxation .true.
atom      14.60184219      0.00000000     50.00000034 Au
  constrain_relaxation .true.
atom      17.52221058      0.00000000     50.00000034 Au
  constrain_relaxation .true.
atom      20.44257897      0.00000000     50.00000034 Au
  constrain_relaxation .true.
atom      23.36294735      0.00000000     50.00000034 Au
  constrain_relaxation .true.
atom       1.46018419      2.52911321     50.00000034 Au
  constrain_relaxation .true.
atom       4.38055258      2.52911321     50.00000034 Au
  constrain_relaxation .true.
atom       7.30092097      2.52911321     50.00000034 Au
  constrain_relaxation .true.
atom      10.22128935      2.52911321     50.00000034 Au
  constrain_relaxation .true.
atom      13.14165774      2.52911321     50.00000034 Au
  constrain_relaxation .true.
atom      16.06202639      2.52911321     50.00000034 Au
  constrain_relaxation .true.
atom      18.98239477      2.52911321     50.00000034 Au
  constrain_relaxation .true.
atom      21.90276316      2.52911321     50.00000034 Au
  constrain_relaxation .true.
atom      24.82313155      2.52911321     50.00000034 Au
  constrain_relaxation .true.
atom       2.92036839      5.05822642     50.00000034 Au
  constrain_relaxation .true.
atom       5.84073677      5.05822642     50.00000034 Au
  constrain_relaxation .true.
atom       8.76110516      5.05822642     50.00000034 Au
  constrain_relaxation .true.
atom      11.68147355      5.05822642     50.00000034 Au
  constrain_relaxation .true.
atom      14.60184193      5.05822642     50.00000034 Au
  constrain_relaxation .true.
atom      17.52221058      5.05822642     50.00000034 Au
  constrain_relaxation .true.
atom      20.44257897      5.05822642     50.00000034 Au
  constrain_relaxation .true.
atom      23.36294735      5.05822642     50.00000034 Au
  constrain_relaxation .true.
atom      26.28331574      5.05822642     50.00000034 Au
  constrain_relaxation .true.
atom       4.38055258      7.58733963     50.00000034 Au
  constrain_relaxation .true.
atom       7.30092097      7.58733963     50.00000034 Au
  constrain_relaxation .true.
atom      10.22128935      7.58733963     50.00000034 Au
  constrain_relaxation .true.
atom      13.14165774      7.58733963     50.00000034 Au
  constrain_relaxation .true.
atom      16.06202612      7.58733963     50.00000034 Au
  constrain_relaxation .true.
atom      18.98239477      7.58733963     50.00000034 Au
  constrain_relaxation .true.
atom      21.90276316      7.58733963     50.00000034 Au
  constrain_relaxation .true.
atom      24.82313155      7.58733963     50.00000034 Au
  constrain_relaxation .true.
atom      27.74349993      7.58733963     50.00000034 Au
  constrain_relaxation .true.
atom       5.84073677     10.11645284     50.00000034 Au
  constrain_relaxation .true.
atom       8.76110516     10.11645284     50.00000034 Au
  constrain_relaxation .true.
atom      11.68147355     10.11645284     50.00000034 Au
  constrain_relaxation .true.
atom      14.60184193     10.11645284     50.00000034 Au
  constrain_relaxation .true.
atom      17.52221032     10.11645284     50.00000034 Au
  constrain_relaxation .true.
atom      20.44257897     10.11645284     50.00000034 Au
  constrain_relaxation .true.
atom      23.36294735     10.11645284     50.00000034 Au
  constrain_relaxation .true.
atom      26.28331574     10.11645284     50.00000034 Au
  constrain_relaxation .true.
atom      29.20368413     10.11645284     50.00000034 Au
  constrain_relaxation .true.
atom       7.30092110     12.64556628     50.00000034 Au
  constrain_relaxation .true.
atom      10.22128948     12.64556628     50.00000034 Au
  constrain_relaxation .true.
atom      13.14165787     12.64556628     50.00000034 Au
  constrain_relaxation .true.
atom      16.06202626     12.64556628     50.00000034 Au
  constrain_relaxation .true.
atom      18.98239464     12.64556628     50.00000034 Au
  constrain_relaxation .true.
atom      21.90276329     12.64556628     50.00000034 Au
  constrain_relaxation .true.
atom      24.82313168     12.64556628     50.00000034 Au
  constrain_relaxation .true.
atom      27.74350006     12.64556628     50.00000034 Au
  constrain_relaxation .true.
atom      30.66386845     12.64556628     50.00000034 Au
  constrain_relaxation .true.
atom       8.76110529     15.17467949     50.00000034 Au
  constrain_relaxation .true.
atom      11.68147368     15.17467949     50.00000034 Au
  constrain_relaxation .true.
atom      14.60184206     15.17467949     50.00000034 Au
  constrain_relaxation .true.
atom      17.52221045     15.17467949     50.00000034 Au
  constrain_relaxation .true.
atom      20.44257884     15.17467949     50.00000034 Au
  constrain_relaxation .true.
atom      23.36294749     15.17467949     50.00000034 Au
  constrain_relaxation .true.
atom      26.28331587     15.17467949     50.00000034 Au
  constrain_relaxation .true.
atom      29.20368426     15.17467949     50.00000034 Au
  constrain_relaxation .true.
atom      32.12405264     15.17467949     50.00000034 Au
  constrain_relaxation .true.
atom      10.22128948     17.70379270     50.00000034 Au
  constrain_relaxation .true.
atom      13.14165787     17.70379270     50.00000034 Au
  constrain_relaxation .true.
atom      16.06202626     17.70379270     50.00000034 Au
  constrain_relaxation .true.
atom      18.98239464     17.70379270     50.00000034 Au
  constrain_relaxation .true.
atom      21.90276303     17.70379270     50.00000034 Au
  constrain_relaxation .true.
atom      24.82313168     17.70379270     50.00000034 Au
  constrain_relaxation .true.
atom      27.74350006     17.70379270     50.00000034 Au
  constrain_relaxation .true.
atom      30.66386845     17.70379270     50.00000034 Au
  constrain_relaxation .true.
atom      33.58423684     17.70379270     50.00000034 Au
  constrain_relaxation .true.
atom      11.68147368     20.23290591     50.00000034 Au
  constrain_relaxation .true.
atom      14.60184206     20.23290591     50.00000034 Au
  constrain_relaxation .true.
atom      17.52221045     20.23290591     50.00000034 Au
  constrain_relaxation .true.
atom      20.44257884     20.23290591     50.00000034 Au
  constrain_relaxation .true.
atom      23.36294722     20.23290591     50.00000034 Au
  constrain_relaxation .true.
atom      26.28331587     20.23290591     50.00000034 Au
  constrain_relaxation .true.
atom      29.20368426     20.23290591     50.00000034 Au
  constrain_relaxation .true.
atom      32.12405264     20.23290591     50.00000034 Au
  constrain_relaxation .true.
atom      35.04442103     20.23290591     50.00000034 Au
  constrain_relaxation .true.
atom       1.46018432      0.84303781     52.38447130 Au
  constrain_relaxation .true.
atom       4.38055271      0.84303781     52.38447130 Au
  constrain_relaxation .true.
atom       7.30092110      0.84303781     52.38447130 Au
  constrain_relaxation .true.
atom      10.22128948      0.84303781     52.38447130 Au
  constrain_relaxation .true.
atom      13.14165787      0.84303781     52.38447130 Au
  constrain_relaxation .true.
atom      16.06202626      0.84303781     52.38447130 Au
  constrain_relaxation .true.
atom      18.98239464      0.84303781     52.38447130 Au
  constrain_relaxation .true.
atom      21.90276303      0.84303781     52.38447130 Au
  constrain_relaxation .true.
atom      24.82313168      0.84303781     52.38447130 Au
  constrain_relaxation .true.
atom       2.92036852      3.37215102     52.38447130 Au
  constrain_relaxation .true.
atom       5.84073690      3.37215102     52.38447130 Au
  constrain_relaxation .true.
atom       8.76110529      3.37215102     52.38447130 Au
  constrain_relaxation .true.
atom      11.68147368      3.37215102     52.38447130 Au
  constrain_relaxation .true.
atom      14.60184206      3.37215102     52.38447130 Au
  constrain_relaxation .true.
atom      17.52221045      3.37215102     52.38447130 Au
  constrain_relaxation .true.
atom      20.44257884      3.37215102     52.38447130 Au
  constrain_relaxation .true.
atom      23.36294722      3.37215102     52.38447130 Au
  constrain_relaxation .true.
atom      26.28331587      3.37215102     52.38447130 Au
  constrain_relaxation .true.
atom       4.38055271      5.90126423     52.38447130 Au
  constrain_relaxation .true.
atom       7.30092110      5.90126423     52.38447130 Au
  constrain_relaxation .true.
atom      10.22128948      5.90126423     52.38447130 Au
  constrain_relaxation .true.
atom      13.14165787      5.90126423     52.38447130 Au
  constrain_relaxation .true.
atom      16.06202626      5.90126423     52.38447130 Au
  constrain_relaxation .true.
atom      18.98239464      5.90126423     52.38447130 Au
  constrain_relaxation .true.
atom      21.90276303      5.90126423     52.38447130 Au
  constrain_relaxation .true.
atom      24.82313142      5.90126423     52.38447130 Au
  constrain_relaxation .true.
atom      27.74350006      5.90126423     52.38447130 Au
  constrain_relaxation .true.
atom       5.84073690      8.43037744     52.38447130 Au
  constrain_relaxation .true.
atom       8.76110529      8.43037744     52.38447130 Au
  constrain_relaxation .true.
atom      11.68147368      8.43037744     52.38447130 Au
  constrain_relaxation .true.
atom      14.60184206      8.43037744     52.38447130 Au
  constrain_relaxation .true.
atom      17.52221045      8.43037744     52.38447130 Au
  constrain_relaxation .true.
atom      20.44257884      8.43037744     52.38447130 Au
  constrain_relaxation .true.
atom      23.36294722      8.43037744     52.38447130 Au
  constrain_relaxation .true.
atom      26.28331561      8.43037744     52.38447130 Au
  constrain_relaxation .true.
atom      29.20368426      8.43037744     52.38447130 Au
  constrain_relaxation .true.
atom       7.30092110     10.95949065     52.38447130 Au
  constrain_relaxation .true.
atom      10.22128948     10.95949065     52.38447130 Au
  constrain_relaxation .true.
atom      13.14165787     10.95949065     52.38447130 Au
  constrain_relaxation .true.
atom      16.06202626     10.95949065     52.38447130 Au
  constrain_relaxation .true.
atom      18.98239464     10.95949065     52.38447130 Au
  constrain_relaxation .true.
atom      21.90276303     10.95949065     52.38447130 Au
  constrain_relaxation .true.
atom      24.82313142     10.95949065     52.38447130 Au
  constrain_relaxation .true.
atom      27.74349980     10.95949065     52.38447130 Au
  constrain_relaxation .true.
atom      30.66386845     10.95949065     52.38447130 Au
  constrain_relaxation .true.
atom       8.76110529     13.48860386     52.38447130 Au
  constrain_relaxation .true.
atom      11.68147368     13.48860386     52.38447130 Au
  constrain_relaxation .true.
atom      14.60184206     13.48860386     52.38447130 Au
  constrain_relaxation .true.
atom      17.52221045     13.48860386     52.38447130 Au
  constrain_relaxation .true.
atom      20.44257884     13.48860386     52.38447130 Au
  constrain_relaxation .true.
atom      23.36294722     13.48860386     52.38447130 Au
  constrain_relaxation .true.
atom      26.28331561     13.48860386     52.38447130 Au
  constrain_relaxation .true.
atom      29.20368399     13.48860386     52.38447130 Au
  constrain_relaxation .true.
atom      32.12405264     13.48860386     52.38447130 Au
  constrain_relaxation .true.
atom      10.22128948     16.01771707     52.38447130 Au
  constrain_relaxation .true.
atom      13.14165787     16.01771707     52.38447130 Au
  constrain_relaxation .true.
atom      16.06202626     16.01771707     52.38447130 Au
  constrain_relaxation .true.
atom      18.98239464     16.01771707     52.38447130 Au
  constrain_relaxation .true.
atom      21.90276303     16.01771707     52.38447130 Au
  constrain_relaxation .true.
atom      24.82313142     16.01771707     52.38447130 Au
  constrain_relaxation .true.
atom      27.74349980     16.01771707     52.38447130 Au
  constrain_relaxation .true.
atom      30.66386819     16.01771707     52.38447130 Au
  constrain_relaxation .true.
atom      33.58423684     16.01771707     52.38447130 Au
  constrain_relaxation .true.
atom      11.68147368     18.54683028     52.38447130 Au
  constrain_relaxation .true.
atom      14.60184206     18.54683028     52.38447130 Au
  constrain_relaxation .true.
atom      17.52221045     18.54683028     52.38447130 Au
  constrain_relaxation .true.
atom      20.44257884     18.54683028     52.38447130 Au
  constrain_relaxation .true.
atom      23.36294722     18.54683028     52.38447130 Au
  constrain_relaxation .true.
atom      26.28331561     18.54683028     52.38447130 Au
  constrain_relaxation .true.
atom      29.20368399     18.54683028     52.38447130 Au
  constrain_relaxation .true.
atom      32.12405238     18.54683028     52.38447130 Au
  constrain_relaxation .true.
atom      35.04442103     18.54683028     52.38447130 Au
  constrain_relaxation .true.
atom      13.14165800     21.07594372     52.38447130 Au
  constrain_relaxation .true.
atom      16.06202639     21.07594372     52.38447130 Au
  constrain_relaxation .true.
atom      18.98239477     21.07594372     52.38447130 Au
  constrain_relaxation .true.
atom      21.90276316     21.07594372     52.38447130 Au
  constrain_relaxation .true.
atom      24.82313155     21.07594372     52.38447130 Au
  constrain_relaxation .true.
atom      27.74349993     21.07594372     52.38447130 Au
  constrain_relaxation .true.
atom      30.66386832     21.07594372     52.38447130 Au
  constrain_relaxation .true.
atom      33.58423671     21.07594372     52.38447130 Au
  constrain_relaxation .true.
atom      36.50460536     21.07594372     52.38447130 Au
  constrain_relaxation .true.
atom      26.28756489      1.69129577     54.70253647 Au
atom       2.92924963      1.68774346     54.70927362 Au
atom       5.85052797      1.68703190     54.72382459 Au
atom       8.76482876      1.68989216     54.73765907 Au
atom      11.67622164      1.69005336     54.73898022 Au
atom      14.58968439      1.68646242     54.72882712 Au
atom      17.50947650      1.68564589     54.71304517 Au
atom      20.43517058      1.68966911     54.70343369 Au
atom      23.36195866      1.69259395     54.70173276 Au
atom      27.74801405      4.22560648     54.72057870 Au
atom       4.38844063      4.22128884     54.71477754 Au
atom       7.30714865      4.21851136     54.71688423 Au
atom      10.22007704      4.21769313     54.71949555 Au
atom      13.13201616      4.21715299     54.71749466 Au
atom      16.04912027      4.21816529     54.71429484 Au
atom      18.97347708      4.22275762     54.71733565 Au
atom      21.89979528      4.22775687     54.72355442 Au
atom      24.82442890      4.22923407     54.72598080 Au
atom      29.20922692      6.75153373     54.74343795 Au
atom       5.84603740      6.74684011     54.72492831 Au
atom       8.76231477      6.74360855     54.71601491 Au
atom      11.67556483      6.74284700     54.71528838 Au
atom      14.59038343      6.74452529     54.72090278 Au
atom      17.50972021      6.74817320     54.73589678 Au
atom      20.43412232      6.75439084     54.75567130 Au
atom      23.36172914      6.75871377     54.76713834 Au
atom      26.28662741      6.75636579     54.76246363 Au
atom      30.66912530      9.27079984     54.75741505 Au
atom       7.30152156      9.26802941     54.72812517 Au
atom      10.21788730      9.26581466     54.71531821 Au
atom      13.13388882      9.26667826     54.72252728 Au
atom      16.04896986      9.26898796     54.74717575 Au
atom      18.96648068      9.27276621     54.77776816 Au
atom      21.89278775      9.27733221     54.80268133 Au
atom      24.82423837      9.27959123     54.80510762 Au
atom      27.75053175      9.27480381     54.78841698 Au
atom      32.12335243     11.79286634     54.75493995 Au
atom       8.75641251     11.79137054     54.72169742 Au
atom      11.67727775     11.79071358     54.71743567 Au
atom      14.59492522     11.79175854     54.74390281 Au
atom      17.50851667     11.79230424     54.78445683 Au
atom      20.42926800     11.79759161     54.82707268 Au
atom      23.35335558     11.80140807     54.84649670 Au
atom      26.28694334     11.79786772     54.82618073 Au
atom      29.20971326     11.79386457     54.79546613 Au
atom      33.57559964     14.32016489     54.73760933 Au
atom      10.21625025     14.31934287     54.71246393 Au
atom      13.14214305     14.31938687     54.72739460 Au
atom      16.05939419     14.31863620     54.77052311 Au
atom      18.97246486     14.32033523     54.81483825 Au
atom      21.89346923     14.32308409     54.85336998 Au
atom      24.82151125     14.32776920     54.85032140 Au
atom      27.74466027     14.32244856     54.82196723 Au
atom      30.66042242     14.32012280     54.78312029 Au
atom      35.03485089     16.85079815     54.71532403 Au
atom      11.68262347     16.85047876     54.70919875 Au
atom      14.60956812     16.84964179     54.74080310 Au
atom      17.52770088     16.85050966     54.78702106 Au
atom      20.44287342     16.85810295     54.82134436 Au
atom      23.35947582     16.86480108     54.83708077 Au
atom      26.27806385     16.86051939     54.82848470 Au
atom      29.19508345     16.85300409     54.79854949 Au
atom      32.11080738     16.84997468     54.75428775 Au
atom      36.50140672     19.38321392     54.70054355 Au
atom      13.14935547     19.38220659     54.71094957 Au
atom      16.07429449     19.38055350     54.74600724 Au
atom      18.99102899     19.38674507     54.78376250 Au
atom      21.90472686     19.39716661     54.80585064 Au
atom      24.81859861     19.39901259     54.80859266 Au
atom      27.73253660     19.38917308     54.79276584 Au
atom      30.64832615     19.38145751     54.75878849 Au
atom      33.57108132     19.38130345     54.71939633 Au
atom      37.96687143     21.91743292     54.69736723 Au
atom      14.61133820     21.91457295     54.71050565 Au
atom      17.53399882     21.91446832     54.73748512 Au
atom      20.44987190     21.92135200     54.76369208 Au
atom      23.36220625     21.92745163     54.77484728 Au
atom      26.27461216     21.92312540     54.76887987 Au
atom      29.18954538     21.91479487     54.74679698 Au
atom      32.11065723     21.91318381     54.71788567 Au
atom      35.03812292     21.91652874     54.69920686 Au
atom      -0.03900230     -0.00101767     57.08503108 Au
atom       2.84931059      0.03683836     57.10916650 Au
atom       5.76576532      0.08018067     57.14500971 Au
atom       8.72064396      0.10969156     57.16979813 Au
atom      11.69854693      0.11344680     57.17279646 Au
atom      14.66363527      0.08854041     57.15468107 Au
atom      17.59162419      0.04597737     57.11938663 Au
atom      20.48735678      0.00567114     57.08927378 Au
atom      23.36687751     -0.01374278     57.07930242 Au
atom       1.44059178      2.48713719     57.09429119 Au
atom       4.35099141      2.53572879     57.10040901 Au
atom       7.27476407      2.57842749     57.11906938 Au
atom      10.21385842      2.59776455     57.12967090 Au
atom      13.15630244      2.58554329     57.12289560 Au
atom      16.08576625      2.54588704     57.10561778 Au
atom      19.00066714      2.49646220     57.09357128 Au
atom      21.90990840      2.46058611     57.09409595 Au
atom      24.81744483      2.45603734     57.09623751 Au
atom       2.93643123      4.98395414     57.11922609 Au
atom       5.85117813      5.03781486     57.10768269 Au
atom       8.76236947      5.07307999     57.10904869 Au
atom      11.67414832      5.07707678     57.10917223 Au
atom      14.58542892      5.04753606     57.10599788 Au
atom      17.49927597      4.99393917     57.11169018 Au
atom      20.42410353      4.94055942     57.12881614 Au
atom      23.36025461      4.91587776     57.14264468 Au
atom      26.29510957      4.93374713     57.13881528 Au
atom       4.43573289      7.50963914     57.14541375 Au
atom       7.33562020      7.55739499     57.11664539 Au
atom      10.22133557      7.57783059     57.10782336 Au
atom      13.10481426      7.56502798     57.11214847 Au
atom      15.99874999      7.52063822     57.13347006 Au
atom      18.91774442      7.45730516     57.16486106 Au
atom      21.87132483      7.40901122     57.18956063 Au
atom      24.83990631      7.40806274     57.19835856 Au
atom      27.79310637      7.45076430     57.18118783 Au
atom       5.92324121     10.06746429     57.15189593 Au
atom       8.79413774     10.09639783     57.11404565 Au
atom      11.65023996     10.09968436     57.10898628 Au
atom      14.51321127     10.07677468     57.13931015 Au
atom      17.40510019     10.02887269     57.18377212 Au
atom      20.35170966      9.97069429     57.20843950 Au
atom      23.35164054      9.94498973     57.22080557 Au
atom      26.34680864      9.96914674     57.22413062 Au
atom      29.30023533     10.01955765     57.19848209 Au
atom       7.38307630     12.63824960     57.13793999 Au
atom      10.22305553     12.64599691     57.10329153 Au
atom      13.05779755     12.64256970     57.12423752 Au
atom      15.91523686     12.62661060     57.17945795 Au
atom      18.82770761     12.59685834     57.21762565 Au
atom      21.81996942     12.55946420     57.25280740 Au
atom      24.86509806     12.56520125     57.23472634 Au
atom      27.86283634     12.58748359     57.22766845 Au
atom      30.79384671     12.61761424     57.19547576 Au
atom       8.81232540     15.19897848     57.11090746 Au
atom      11.63611326     15.19875277     57.10122487 Au
atom      14.46908122     15.20545262     57.15205086 Au
atom      17.34456185     15.21226333     57.20720491 Au
atom      20.30280289     15.21314938     57.22539916 Au
atom      23.34449445     15.20839345     57.23107666 Au
atom      26.38910140     15.20673785     57.23410573 Au
atom      29.35697158     15.20499321     57.21907164 Au
atom      32.25215149     15.20325216     57.17093452 Au
atom      10.22736690     17.73992782     57.08986836 Au
atom      13.05828340     17.74871783     57.11124742 Au
atom      15.91307879     17.77352488     57.17206527 Au
atom      18.82728703     17.80097522     57.21611951 Au
atom      21.82269079     17.81748093     57.23113158 Au
atom      24.86607343     17.81649106     57.23116424 Au
atom      27.87308536     17.79953714     57.22382720 Au
atom      30.80593581     17.77530609     57.19001353 Au
atom      33.67527544     17.75181626     57.12782066 Au
atom      11.65148526     20.26035641     57.08420298 Au
atom      14.50790888     20.28478563     57.11783457 Au
atom      17.39684021     20.32313147     57.16962633 Au
atom      20.34409362     20.35595566     57.20405566 Au
atom      23.34619512     20.37016917     57.21394370 Au
atom      26.35540252     20.36059453     57.20944417 Au
atom      29.31809462     20.32924716     57.18308414 Au
atom      32.22205367     20.29110103     57.13272997 Au
atom      35.08581014     20.26344225     57.09039657 Au
atom       6.86899453      5.77305434     61.38967082 Mo
atom       8.51547541      6.71921592     62.91318038 S
atom       8.51131682      6.71942721     59.86481279 S
atom       8.50898806      8.62018783     61.39020723 Mo
atom      10.16437686      9.56404022     62.91165268 S
atom      10.16216120      9.56641636     59.86353077 S
atom      10.16345704     11.45891165     61.38697206 Mo
atom      11.82439131     12.40011095     62.90702037 S
atom      11.82849154     12.40568291     59.85934022 S
atom      11.82179565     14.29374975     61.38505328 Mo
atom      13.48080094     15.23297539     62.90472485 S
atom      13.48639576     15.24220645     59.85626684 S
atom      13.47556337     17.13099531     61.38805317 Mo
atom      15.12820626     18.06999186     62.90848348 S
atom      15.13343899     18.07555314     59.85871008 S
atom      15.12028851     19.97244325     61.39223051 Mo
atom      16.76635459     20.91820338     62.91130618 S
atom      16.76915350     20.91087931     59.86217412 S
atom       3.61316361      0.06030697     61.39087092 Mo
atom       5.25421239      1.01171660     62.90975101 S
atom       5.25217056      1.00001542     59.86077752 S
atom       5.24048475      2.91768039     61.38821997 Mo
atom       6.88111336      3.86713433     62.91052353 S
atom       6.87739922      3.86192377     59.86185811 S
atom      10.16409247      5.76415584     61.39259341 Mo
atom      11.81336416      6.71804304     62.91369384 S
atom      11.81467788      6.71753436     59.86548862 S
atom      11.81846650      8.61882877     61.39068241 Mo
atom      13.47527613      9.57005141     62.90862928 S
atom      13.48131565      9.57426768     59.85861695 S
atom      13.48447338     11.46428815     61.38300646 Mo
atom      15.14406550     12.41069064     62.90075487 S
atom      15.15008042     12.41313705     59.84565457 S
atom      15.13639397     14.29839950     61.37253069 Mo
atom      16.79328687     15.22888518     62.88625919 S
atom      16.79021862     15.24345399     59.83320865 S
atom      16.77571067     17.12641869     61.37257898 Mo
atom      18.41568641     18.05920725     62.90056897 S
atom      18.42125869     18.06680865     59.83848563 S
atom      18.40871357     19.95971582     61.37991311 Mo
atom      20.04424620     20.90818367     62.90387324 S
atom      20.04516254     20.89721170     59.84557240 S
atom       6.89427502      0.04695145     61.38226910 Mo
atom       8.52978708      0.99965204     62.90742182 S
atom       8.53006338      0.98442320     59.85242403 S
atom       8.52397087      2.90372317     61.38729053 Mo
atom      10.16441606      3.85842495     62.91185598 S
atom      10.16378788      3.85087253     59.86168373 S
atom      13.45851847      5.76952109     61.38971505 Mo
atom      15.10934273      6.73036925     62.90805985 S
atom      15.11548071      6.73239914     59.85916290 S
atom      15.12358093      8.63047622     61.38180992 Mo
atom      16.77912826      9.58624495     62.89701358 S
atom      16.78327565      9.58973818     59.84685093 S
atom      16.79265007     11.47527814     61.36591640 Mo
atom      18.49252101     12.41682488     62.86680561 S
atom      18.43869672     12.41483502     59.80349052 S
atom      18.43664255     14.29699998     61.34113144 Mo
atom      20.08489972     15.18576025     62.86707601 S
atom      20.06018995     15.25327706     59.78683546 S
atom      20.04964408     17.11533779     61.35597726 Mo
atom      21.68020332     18.05603105     62.88693328 S
atom      21.68216825     18.06135337     59.82509441 S
atom      21.67730378     19.95395283     61.36807734 Mo
atom      23.30700544     20.90324267     62.90095188 S
atom      23.30896061     20.89116365     59.83785050 S
atom      10.16556655      0.03998585     61.37905525 Mo
atom      11.80021147      0.99822480     62.90726695 S
atom      11.80010944      0.98255907     59.85144775 S
atom      11.80435758      2.90189809     61.38712078 Mo
atom      13.44749627      3.86383633     62.91032752 S
atom      13.44876701      3.85689835     59.86130672 S
atom      16.75056355      5.78518120     61.38356070 Mo
atom      18.39931431      6.74959191     62.90158220 S
atom      18.40201324      6.75270478     59.84870563 S
atom      18.41831256      8.64793008     61.36741911 Mo
atom      20.08402615      9.63821079     62.87825794 S
atom      20.04648899      9.60349495     59.79914405 S
atom      20.07060652     11.46596623     61.29691864 Mo
atom      21.68506126     12.43265382     59.81680751 S
atom      21.68251881     14.32009601     61.27190348 Mo
atom      23.27530428     15.18857990     62.86304444 S
atom      23.30762364     15.25235412     59.77653877 S
atom      23.30874529     17.11371814     61.34843005 Mo
atom      24.93330508     18.05629101     62.89299342 S
atom      24.93516672     18.06116782     59.82106869 S
atom      24.93757874     19.95176396     61.36951833 Mo
atom      26.56894202     20.90734509     62.90392997 S
atom      26.56790911     20.89393477     59.84267193 S
atom      13.43429712      0.04310412     61.38106020 Mo
atom      15.07285438      1.00810065     62.90820824 S
atom      15.07279675      0.99382016     59.85696496 S
atom      15.08616112      2.91272392     61.38646201 Mo
atom      16.73075644      3.87940932     62.90842486 S
atom      16.73626684      3.87563302     59.86122886 S
atom      20.02944831      5.79619802     61.37515564 Mo
atom      21.66480647      6.76812876     62.88731585 S
atom      21.67393286      6.75716380     59.83847294 S
atom      21.67404987      8.66237843     61.34176852 Mo
atom      23.25948193      9.64545427     62.87807358 S
atom      23.31506257      9.60689593     59.79575022 S
atom      23.28836705     11.46811272     61.29237139 Mo
atom      24.85536934     12.42520386     62.86188337 S
atom      24.92328368     12.41846724     59.78994573 S
atom      24.91640003     14.29941616     61.32937159 Mo
atom      26.54497840     15.23311817     62.87847188 S
atom      26.55928959     15.24304989     59.81258696 S
atom      26.56468266     17.12299704     61.35835531 Mo
atom      28.19566047     18.06741969     62.90070849 S